*SPEF "ieee 1481-1999"
*DESIGN "D14_topcell"
*DATE "00:54:56 Friday September 25, 2026"
*VENDOR "The OpenROAD Project"
*PROGRAM "OpenROAD"
*VERSION "26Q1-1024-gdcf36133a"
*DESIGN_FLOW "NAME_SCOPE LOCAL" "PIN_CAP NONE"
*DIVIDER /
*DELIMITER :
*BUS_DELIMITER []
*T_UNIT 1 NS
*C_UNIT 1 PF
*R_UNIT 1 OHM
*L_UNIT 1 HENRY

*NAME_MAP
*1 Vin
*2 Vin_neg
*5 vpost1
*6 vpost2
*7 vpre1
*8 vpre2
*9 vw11
*10 vw42
*13 A_wire
*14 B_wire
*15 ifwd1_net
*16 ifwd2_net
*17 net3
*18 net4
*19 net5
*20 net6
*21 nvpost1_net
*22 nvpost2_net
*23 nvpre1_int
*24 nvpre2_int
*25 nvpre3_int
*26 nvpre4_int
*27 vpre3_int
*28 vpre4_int
*29 u_current_mirror
*30 u_encoder
*31 u_layer_input
*32 u_layer_output
*33 u_stdp_4x2

*PORTS
Vin I
Vin_neg I
vpost1 I
vpost2 I
vpre1 I
vpre2 I
vw11 I
vw42 I

*D_NET *1 0.0428291
*CONN
*P Vin I
*I *30:Vin I *D encoder
*CAP
1 Vin 9.92753e-05
2 *30:Vin 0.00109331
3 *1:10 0.0210899
4 *1:8 0.0200958
5 *30:Vin *30:Vin_neg 0.000111852
6 *30:Vin *8:12 0.000108483
7 *30:Vin *19:7 0.00023049
*RES
1 Vin *1:8 4.968 
2 *1:8 *1:10 109.928 
3 *1:10 *30:Vin 14.848 
*END

*D_NET *2 0.0223942
*CONN
*P Vin_neg I
*I *30:Vin_neg I *D encoder
*CAP
1 Vin_neg 0.000572901
2 *30:Vin_neg 0.00133996
3 *2:10 0.00956328
4 *2:8 0.00879623
5 *30:Vin_neg *30:Iex_4_i 0.000416789
6 *30:Vin_neg *8:12 0.00159322
7 *2:10 *30:Iex_1_i 0
8 *2:10 *7:16 0
9 *30:Vin *30:Vin_neg 0.000111852
*RES
1 Vin_neg *2:8 9.128 
2 *2:8 *2:10 72.488 
3 *2:10 *30:Vin_neg 31.388 
*END

*D_NET *5 0.0192558
*CONN
*P vpost1 I
*I *33:vpost1 I *D stdp_4x2
*I *32:vout_1 I *D layer_output
*CAP
1 vpost1 0.00359003
2 *33:vpost1 0.00150864
3 *32:vout_1 0.00792495
4 *5:28 0.00584357
5 *33:vpost1 *32:Iext1 0.000286113
6 *5:28 *32:Iext1 0.000102468
*RES
1 vpost1 *32:vout_1 44.908 
2 *32:vout_1 *5:28 49.404 
3 *5:28 *33:vpost1 14.716 
*END

*D_NET *6 0.0214756
*CONN
*P vpost2 I
*I *33:vpost2 I *D stdp_4x2
*I *32:vout_2 I *D layer_output
*CAP
1 vpost2 0.00179389
2 *33:vpost2 0.000417383
3 *32:vout_2 0.00249621
4 *6:41 0.00480957
5 *6:13 0.00868229
6 *32:vout_2 *32:nvout_1 0.00178347
7 *32:vout_2 *21:28 0.000270006
8 *32:vout_2 *22:26 0.000846599
9 *6:41 *22:26 0.000376185
*RES
1 vpost2 *6:13 21.612 
2 *6:13 *32:vout_2 48.368 
3 *6:13 *6:41 47.48 
4 *6:41 *33:vpost2 3.692 
*END

*D_NET *7 0.0238228
*CONN
*P vpre1 I
*I *33:vpre1 I *D stdp_4x2
*I *31:vout_1 I *D layer_input
*CAP
1 vpre1 0.00300834
2 *33:vpre1 0.00286868
3 *31:vout_1 7.3471e-05
4 *7:18 0.00711932
5 *7:16 0.00718551
6 *7:16 *30:Iex_1_i 0.00213951
7 *7:16 *18:16 8.5777e-05
8 *7:16 *20:7 0.00134216
9 *2:10 *7:16 0
*RES
1 vpre1 *7:16 42.852 
2 *7:16 *7:18 37.544 
3 *7:18 *31:vout_1 0.676 
4 *7:18 *33:vpre1 33.232 
*END

*D_NET *8 0.0207119
*CONN
*P vpre2 I
*I *33:vpre2 I *D stdp_4x2
*I *31:vout_2 I *D layer_input
*CAP
1 vpre2 0.00470715
2 *33:vpre2 0.00165176
3 *31:vout_2 0.00129913
4 *8:14 0.00479794
5 *8:12 0.0065542
6 *30:Vin *8:12 0.000108483
7 *30:Vin_neg *8:12 0.00159322
*RES
1 vpre2 *8:12 49.064 
2 *8:12 *8:14 15.9009 
3 *8:14 *31:vout_2 15.8471 
4 *8:14 *33:vpre2 25.8157 
*END

*D_NET *9 0.00894865
*CONN
*P vw11 I
*I *33:vw11 I *D stdp_4x2
*CAP
1 vw11 0.00447433
2 *33:vw11 0.00447433
*RES
1 vw11 *33:vw11 47.8571 
*END

*D_NET *10 0.00503493
*CONN
*P vw42 I
*I *33:vw42 I *D stdp_4x2
*CAP
1 vw42 0.00251747
2 *33:vw42 0.00251747
*RES
1 vw42 *33:vw42 30.996 
*END

*D_NET *13 0.00647335
*CONN
*I *29:A I *D current_mirror
*I *33:A I *D stdp_4x2
*CAP
1 *29:A 0.00323668
2 *33:A 0.00323668
*RES
1 *33:A *29:A 32.608 
*END

*D_NET *14 0.00736384
*CONN
*I *29:B I *D current_mirror
*I *33:B I *D stdp_4x2
*CAP
1 *29:B 0.00341275
2 *33:B 0.00341275
3 *29:B *31:nvout_4 0.000538336
*RES
1 *33:B *29:B 38.7106 
*END

*D_NET *15 0.00213371
*CONN
*I *32:Iext1 I *D layer_output
*I *33:ifwd1 I *D stdp_4x2
*CAP
1 *32:Iext1 0.000872567
2 *33:ifwd1 0.000872567
3 *33:vpost1 *32:Iext1 0.000286113
4 *5:28 *32:Iext1 0.000102468
*RES
1 *33:ifwd1 *32:Iext1 18.412 
*END

*D_NET *16 0.00472344
*CONN
*I *32:Iext2 I *D layer_output
*I *33:ifwd2 I *D stdp_4x2
*CAP
1 *32:Iext2 0.00202917
2 *33:ifwd2 0.00202917
3 *32:Iext2 *21:16 0.000649527
4 *32:Iext2 *21:28 1.55711e-05
*RES
1 *33:ifwd2 *32:Iext2 27.512 
*END

*D_NET *17 0.010137
*CONN
*I *30:Iex_1_i I *D encoder
*I *31:Iext1 I *D layer_input
*CAP
1 *30:Iex_1_i 0.00359761
2 *31:Iext1 0.00359761
3 *30:Iex_1_i *30:Iex_2_i 0.000176485
4 *30:Iex_1_i *30:Iex_3_i 0.00048439
5 *30:Iex_1_i *19:7 0
6 *30:Iex_1_i *20:7 0.000141368
7 *2:10 *30:Iex_1_i 0
8 *7:16 *30:Iex_1_i 0.00213951
*RES
1 *31:Iext1 *30:Iex_1_i 43.008 
*END

*D_NET *18 0.0120938
*CONN
*I *30:Iex_2_i I *D encoder
*I *31:Iext2 I *D layer_input
*CAP
1 *30:Iex_2_i 0.00405738
2 *31:Iext2 0.000437518
3 *18:16 0.0044949
4 *30:Iex_2_i *19:7 0.00283894
5 *18:16 *20:7 2.82107e-06
6 *30:Iex_1_i *30:Iex_2_i 0.000176485
7 *7:16 *18:16 8.5777e-05
*RES
1 *31:Iext2 *18:16 15.4377 
2 *18:16 *30:Iex_2_i 48.5403 
*END

*D_NET *19 0.031746
*CONN
*I *30:Iex_3_i I *D encoder
*I *31:Iext3 I *D layer_input
*CAP
1 *30:Iex_3_i 0.00198439
2 *31:Iext3 0
3 *19:7 0.00509879
4 *19:5 0.00311439
5 *19:7 *20:7 0.0179946
6 *30:Vin *19:7 0.00023049
7 *30:Iex_1_i *30:Iex_3_i 0.00048439
8 *30:Iex_1_i *19:7 0
9 *30:Iex_2_i *19:7 0.00283894
*RES
1 *31:Iext3 *19:5 4.5 
2 *19:5 *19:7 59.8 
3 *19:7 *30:Iex_3_i 20.672 
*END

*D_NET *20 0.0338734
*CONN
*I *30:Iex_4_i I *D encoder
*I *31:Iext4 I *D layer_input
*CAP
1 *30:Iex_4_i 0.00301571
2 *31:Iext4 0
3 *20:7 0.00698783
4 *20:5 0.00397212
5 *30:Vin_neg *30:Iex_4_i 0.000416789
6 *30:Iex_1_i *20:7 0.000141368
7 *7:16 *20:7 0.00134216
8 *18:16 *20:7 2.82107e-06
9 *19:7 *20:7 0.0179946
*RES
1 *31:Iext4 *20:5 4.5 
2 *20:5 *20:7 62.504 
3 *20:7 *30:Iex_4_i 37.628 
*END

*D_NET *21 0.0186076
*CONN
*I *32:nvout_1 I *D layer_output
*I *33:nvpost1 I *D stdp_4x2
*CAP
1 *32:nvout_1 0.00246006
2 *33:nvpost1 0.00166729
3 *21:28 0.0061704
4 *21:16 0.00537763
5 *21:28 *22:26 0.000213672
6 *32:Iext2 *21:16 0.000649527
7 *32:Iext2 *21:28 1.55711e-05
8 *32:vout_2 *32:nvout_1 0.00178347
9 *32:vout_2 *21:28 0.000270006
*RES
1 *33:nvpost1 *21:16 22.069 
2 *21:16 *21:28 45.7833 
3 *21:28 *32:nvout_1 28.444 
*END

*D_NET *22 0.0177973
*CONN
*I *32:nvout_2 I *D layer_output
*I *33:nvpost2 I *D stdp_4x2
*CAP
1 *32:nvout_2 3.14016e-05
2 *33:nvpost2 0.00404222
3 *22:26 0.00413822
4 *22:12 0.00814903
5 *32:vout_2 *22:26 0.000846599
6 *6:41 *22:26 0.000376185
7 *21:28 *22:26 0.000213672
*RES
1 *33:nvpost2 *22:12 43.268 
2 *22:12 *22:26 46.6467 
3 *22:26 *32:nvout_2 9.17457 
*END

*D_NET *23 0.00825443
*CONN
*I *31:nvout_1 I *D layer_input
*I *33:nvpre1 I *D stdp_4x2
*CAP
1 *31:nvout_1 0.00412722
2 *33:nvpre1 0.00412722
*RES
1 *33:nvpre1 *31:nvout_1 32.92 
*END

*D_NET *24 0.00583669
*CONN
*I *31:nvout_2 I *D layer_input
*I *33:nvpre2 I *D stdp_4x2
*CAP
1 *31:nvout_2 0.00291835
2 *33:nvpre2 0.00291835
*RES
1 *33:nvpre2 *31:nvout_2 33.596 
*END

*D_NET *25 0.00564645
*CONN
*I *31:nvout_3 I *D layer_input
*I *33:nvpre3 I *D stdp_4x2
*CAP
1 *31:nvout_3 0.0027388
2 *33:nvpre3 0.0027388
3 *31:nvout_3 *31:vout_3 0.000122509
4 *31:nvout_3 *31:vout_4 4.63459e-05
*RES
1 *33:nvpre3 *31:nvout_3 31.36 
*END

*D_NET *26 0.00593153
*CONN
*I *31:nvout_4 I *D layer_input
*I *33:nvpre4 I *D stdp_4x2
*CAP
1 *31:nvout_4 0.00269659
2 *33:nvpre4 0.00269659
3 *29:B *31:nvout_4 0.000538336
*RES
1 *33:nvpre4 *31:nvout_4 32.348 
*END

*D_NET *27 0.00758584
*CONN
*I *31:vout_3 I *D layer_input
*I *33:vpre3 I *D stdp_4x2
*CAP
1 *31:vout_3 0.00373167
2 *33:vpre3 0.00373167
3 *31:nvout_3 *31:vout_3 0.000122509
*RES
1 *33:vpre3 *31:vout_3 31.672 
*END

*D_NET *28 0.00695845
*CONN
*I *31:vout_4 I *D layer_input
*I *33:vpre4 I *D stdp_4x2
*CAP
1 *31:vout_4 0.00345605
2 *33:vpre4 0.00345605
3 *31:nvout_3 *31:vout_4 4.63459e-05
*RES
1 *33:vpre4 *31:vout_4 30.944 
*END
