*SPEF "ieee 1481-1999"
*DESIGN "contador"
*DATE "23:10:06 Monday October 05, 2026"
*VENDOR "The OpenROAD Project"
*PROGRAM "OpenROAD"
*VERSION "dcf36133a369abc8f3c5e5738cd4d82e4903c0e0"
*DESIGN_FLOW "NAME_SCOPE LOCAL" "PIN_CAP NONE"
*DIVIDER /
*DELIMITER :
*BUS_DELIMITER []
*T_UNIT 1 NS
*C_UNIT 1 PF
*R_UNIT 1 OHM
*L_UNIT 1 HENRY

*NAME_MAP
*3 enable
*4 reloj
*5 reset
*6 resultado[0]
*7 resultado[1]
*8 resultado[2]
*9 resultado[3]
*10 suma_resta
*11 _00_
*12 _01_
*13 _02_
*14 _03_
*15 _04_
*16 _05_
*17 _06_
*18 _07_
*19 _08_
*20 _09_
*21 _10_
*22 _11_
*23 _12_
*24 _13_
*25 _14_
*26 _15_
*27 _16_
*28 _17_
*29 _18_
*30 _19_
*31 _20_
*32 _21_
*33 _22_
*34 _23_
*35 _24_
*36 _25_
*37 _26_
*38 _27_
*39 _28_
*40 net
*41 net1
*42 net10
*43 net11
*44 net2
*45 net3
*46 net4
*47 net5
*48 net6
*49 net7
*50 net8
*51 net9
*52 FILLER_0_104
*53 FILLER_0_120
*54 FILLER_0_127
*55 FILLER_0_135
*56 FILLER_0_138
*57 FILLER_0_146
*58 FILLER_0_150
*59 FILLER_0_18
*60 FILLER_0_2
*61 FILLER_0_42
*62 FILLER_0_58
*63 FILLER_0_66
*64 FILLER_0_70
*65 FILLER_0_86
*66 FILLER_10_107
*67 FILLER_10_123
*68 FILLER_10_138
*69 FILLER_10_146
*70 FILLER_10_150
*71 FILLER_10_18
*72 FILLER_10_2
*73 FILLER_10_34
*74 FILLER_10_37
*75 FILLER_10_53
*76 FILLER_10_69
*77 FILLER_10_85
*78 FILLER_10_89
*79 FILLER_10_97
*80 FILLER_11_10
*81 FILLER_11_102
*82 FILLER_11_118
*83 FILLER_11_122
*84 FILLER_11_139
*85 FILLER_11_142
*86 FILLER_11_150
*87 FILLER_11_2
*88 FILLER_11_51
*89 FILLER_11_59
*90 FILLER_11_72
*91 FILLER_11_84
*92 FILLER_11_88
*93 FILLER_11_94
*94 FILLER_12_103
*95 FILLER_12_107
*96 FILLER_12_123
*97 FILLER_12_127
*98 FILLER_12_136
*99 FILLER_12_18
*100 FILLER_12_2
*101 FILLER_12_34
*102 FILLER_12_41
*103 FILLER_12_83
*104 FILLER_12_99
*105 FILLER_13_113
*106 FILLER_13_121
*107 FILLER_13_123
*108 FILLER_13_137
*109 FILLER_13_139
*110 FILLER_13_142
*111 FILLER_13_150
*112 FILLER_13_19
*113 FILLER_13_2
*114 FILLER_13_35
*115 FILLER_13_51
*116 FILLER_13_6
*117 FILLER_13_67
*118 FILLER_13_69
*119 FILLER_13_72
*120 FILLER_13_8
*121 FILLER_13_88
*122 FILLER_13_97
*123 FILLER_14_101
*124 FILLER_14_107
*125 FILLER_14_148
*126 FILLER_14_2
*127 FILLER_14_24
*128 FILLER_14_32
*129 FILLER_14_34
*130 FILLER_14_37
*131 FILLER_14_45
*132 FILLER_14_61
*133 FILLER_14_77
*134 FILLER_14_93
*135 FILLER_15_109
*136 FILLER_15_125
*137 FILLER_15_129
*138 FILLER_15_131
*139 FILLER_15_136
*140 FILLER_15_142
*141 FILLER_15_150
*142 FILLER_15_18
*143 FILLER_15_2
*144 FILLER_15_57
*145 FILLER_15_65
*146 FILLER_15_69
*147 FILLER_16_10
*148 FILLER_16_104
*149 FILLER_16_120
*150 FILLER_16_138
*151 FILLER_16_142
*152 FILLER_16_149
*153 FILLER_16_151
*154 FILLER_16_17
*155 FILLER_16_2
*156 FILLER_16_33
*157 FILLER_16_36
*158 FILLER_16_52
*159 FILLER_16_54
*160 FILLER_16_61
*161 FILLER_16_65
*162 FILLER_16_67
*163 FILLER_16_70
*164 FILLER_16_86
*165 FILLER_16_94
*166 FILLER_1_104
*167 FILLER_1_120
*168 FILLER_1_136
*169 FILLER_1_142
*170 FILLER_1_150
*171 FILLER_1_18
*172 FILLER_1_2
*173 FILLER_1_34
*174 FILLER_1_50
*175 FILLER_1_66
*176 FILLER_1_72
*177 FILLER_1_88
*178 FILLER_2_101
*179 FILLER_2_107
*180 FILLER_2_123
*181 FILLER_2_139
*182 FILLER_2_147
*183 FILLER_2_151
*184 FILLER_2_18
*185 FILLER_2_2
*186 FILLER_2_34
*187 FILLER_2_37
*188 FILLER_2_53
*189 FILLER_2_69
*190 FILLER_2_85
*191 FILLER_3_104
*192 FILLER_3_120
*193 FILLER_3_136
*194 FILLER_3_142
*195 FILLER_3_150
*196 FILLER_3_18
*197 FILLER_3_2
*198 FILLER_3_34
*199 FILLER_3_50
*200 FILLER_3_66
*201 FILLER_3_72
*202 FILLER_3_88
*203 FILLER_4_101
*204 FILLER_4_107
*205 FILLER_4_123
*206 FILLER_4_139
*207 FILLER_4_147
*208 FILLER_4_151
*209 FILLER_4_18
*210 FILLER_4_2
*211 FILLER_4_34
*212 FILLER_4_37
*213 FILLER_4_53
*214 FILLER_4_69
*215 FILLER_4_85
*216 FILLER_5_104
*217 FILLER_5_120
*218 FILLER_5_136
*219 FILLER_5_142
*220 FILLER_5_150
*221 FILLER_5_18
*222 FILLER_5_2
*223 FILLER_5_34
*224 FILLER_5_50
*225 FILLER_5_66
*226 FILLER_5_72
*227 FILLER_5_88
*228 FILLER_6_107
*229 FILLER_6_123
*230 FILLER_6_139
*231 FILLER_6_147
*232 FILLER_6_151
*233 FILLER_6_18
*234 FILLER_6_2
*235 FILLER_6_34
*236 FILLER_6_37
*237 FILLER_6_57
*238 FILLER_6_73
*239 FILLER_6_89
*240 FILLER_7_10
*241 FILLER_7_101
*242 FILLER_7_117
*243 FILLER_7_133
*244 FILLER_7_137
*245 FILLER_7_139
*246 FILLER_7_142
*247 FILLER_7_150
*248 FILLER_7_2
*249 FILLER_7_22
*250 FILLER_7_38
*251 FILLER_7_46
*252 FILLER_7_54
*253 FILLER_7_63
*254 FILLER_7_67
*255 FILLER_7_69
*256 FILLER_7_72
*257 FILLER_7_88
*258 FILLER_7_93
*259 FILLER_8_10
*260 FILLER_8_100
*261 FILLER_8_104
*262 FILLER_8_117
*263 FILLER_8_12
*264 FILLER_8_125
*265 FILLER_8_136
*266 FILLER_8_2
*267 FILLER_8_23
*268 FILLER_8_31
*269 FILLER_8_37
*270 FILLER_8_45
*271 FILLER_8_75
*272 FILLER_8_83
*273 FILLER_8_87
*274 FILLER_8_89
*275 FILLER_9_104
*276 FILLER_9_12
*277 FILLER_9_120
*278 FILLER_9_136
*279 FILLER_9_142
*280 FILLER_9_23
*281 FILLER_9_39
*282 FILLER_9_47
*283 FILLER_9_49
*284 FILLER_9_57
*285 FILLER_9_65
*286 FILLER_9_69
*287 FILLER_9_72
*288 FILLER_9_8
*289 FILLER_9_88
*290 PHY_EDGE_ROW_0_Left_17
*291 PHY_EDGE_ROW_0_Right_0
*292 PHY_EDGE_ROW_10_Left_27
*293 PHY_EDGE_ROW_10_Right_10
*294 PHY_EDGE_ROW_11_Left_28
*295 PHY_EDGE_ROW_11_Right_11
*296 PHY_EDGE_ROW_12_Left_29
*297 PHY_EDGE_ROW_12_Right_12
*298 PHY_EDGE_ROW_13_Left_30
*299 PHY_EDGE_ROW_13_Right_13
*300 PHY_EDGE_ROW_14_Left_31
*301 PHY_EDGE_ROW_14_Right_14
*302 PHY_EDGE_ROW_15_Left_32
*303 PHY_EDGE_ROW_15_Right_15
*304 PHY_EDGE_ROW_16_Left_33
*305 PHY_EDGE_ROW_16_Right_16
*306 PHY_EDGE_ROW_1_Left_18
*307 PHY_EDGE_ROW_1_Right_1
*308 PHY_EDGE_ROW_2_Left_19
*309 PHY_EDGE_ROW_2_Right_2
*310 PHY_EDGE_ROW_3_Left_20
*311 PHY_EDGE_ROW_3_Right_3
*312 PHY_EDGE_ROW_4_Left_21
*313 PHY_EDGE_ROW_4_Right_4
*314 PHY_EDGE_ROW_5_Left_22
*315 PHY_EDGE_ROW_5_Right_5
*316 PHY_EDGE_ROW_6_Left_23
*317 PHY_EDGE_ROW_6_Right_6
*318 PHY_EDGE_ROW_7_Left_24
*319 PHY_EDGE_ROW_7_Right_7
*320 PHY_EDGE_ROW_8_Left_25
*321 PHY_EDGE_ROW_8_Right_8
*322 PHY_EDGE_ROW_9_Left_26
*323 PHY_EDGE_ROW_9_Right_9
*324 TAP_TAPCELL_ROW_0_34
*325 TAP_TAPCELL_ROW_0_35
*326 TAP_TAPCELL_ROW_0_36
*327 TAP_TAPCELL_ROW_0_37
*328 TAP_TAPCELL_ROW_10_56
*329 TAP_TAPCELL_ROW_10_57
*330 TAP_TAPCELL_ROW_11_58
*331 TAP_TAPCELL_ROW_11_59
*332 TAP_TAPCELL_ROW_12_60
*333 TAP_TAPCELL_ROW_12_61
*334 TAP_TAPCELL_ROW_13_62
*335 TAP_TAPCELL_ROW_13_63
*336 TAP_TAPCELL_ROW_14_64
*337 TAP_TAPCELL_ROW_14_65
*338 TAP_TAPCELL_ROW_15_66
*339 TAP_TAPCELL_ROW_15_67
*340 TAP_TAPCELL_ROW_16_68
*341 TAP_TAPCELL_ROW_16_69
*342 TAP_TAPCELL_ROW_16_70
*343 TAP_TAPCELL_ROW_16_71
*344 TAP_TAPCELL_ROW_1_38
*345 TAP_TAPCELL_ROW_1_39
*346 TAP_TAPCELL_ROW_2_40
*347 TAP_TAPCELL_ROW_2_41
*348 TAP_TAPCELL_ROW_3_42
*349 TAP_TAPCELL_ROW_3_43
*350 TAP_TAPCELL_ROW_4_44
*351 TAP_TAPCELL_ROW_4_45
*352 TAP_TAPCELL_ROW_5_46
*353 TAP_TAPCELL_ROW_5_47
*354 TAP_TAPCELL_ROW_6_48
*355 TAP_TAPCELL_ROW_6_49
*356 TAP_TAPCELL_ROW_7_50
*357 TAP_TAPCELL_ROW_7_51
*358 TAP_TAPCELL_ROW_8_52
*359 TAP_TAPCELL_ROW_8_53
*360 TAP_TAPCELL_ROW_9_54
*361 TAP_TAPCELL_ROW_9_55
*362 _33_
*363 _34_
*364 _35_
*365 _36_
*366 _37_
*367 _38_
*368 _39_
*369 _40_
*370 _41_
*371 _42_
*372 _43_
*373 _44_
*374 _45_
*375 _46_
*376 _47_
*377 _48_
*378 _49_
*379 _50_
*380 _51_
*381 _52_
*382 _53_
*383 _54_
*384 _55_
*385 _56_
*386 _57_
*387 _58_
*388 _59_
*389 _60_
*390 _61_
*391 _62_
*392 _62__10
*393 _63_
*394 _63__9
*395 _64_
*396 _64__12
*397 _65_
*398 _65__11
*399 input1
*400 input2
*401 input3
*402 input4
*403 output5
*404 output6
*405 output7
*406 output8

*PORTS
enable I
reloj I
reset I
resultado[0] O
resultado[1] O
resultado[2] O
resultado[3] O
suma_resta I

*D_NET *3 0.00175292
*CONN
*P enable I
*I *399:A I *D gf180mcu_as_sc_mcu7t3v3__buff_2
*CAP
1 enable 0.00087646
2 *399:A 0.00087646
*RES
1 enable *399:A 18.706 
*END

*D_NET *4 0.000925534
*CONN
*P reloj I
*I *400:A I *D gf180mcu_as_sc_mcu7t3v3__buff_2
*CAP
1 reloj 0.000462767
2 *400:A 0.000462767
3 *400:A *19:10 0
*RES
1 reloj *400:A 12.002 
*END

*D_NET *5 0.000911124
*CONN
*P reset I
*I *401:A I *D gf180mcu_as_sc_mcu7t3v3__buff_2
*CAP
1 reset 0.000455562
2 *401:A 0.000455562
*RES
1 reset *401:A 11.926 
*END

*D_NET *6 0.00161038
*CONN
*P resultado[0] O
*I *403:Y O *D gf180mcu_as_sc_mcu7t3v3__buff_2
*CAP
1 resultado[0] 0.000805191
2 *403:Y 0.000805191
*RES
1 *403:Y resultado[0] 9.706 
*END

*D_NET *7 0.00166203
*CONN
*P resultado[1] O
*I *404:Y O *D gf180mcu_as_sc_mcu7t3v3__buff_2
*CAP
1 resultado[1] 0.000831015
2 *404:Y 0.000831015
*RES
1 *404:Y resultado[1] 9.858 
*END

*D_NET *8 0.00161736
*CONN
*P resultado[2] O
*I *405:Y O *D gf180mcu_as_sc_mcu7t3v3__buff_2
*CAP
1 resultado[2] 0.000808679
2 *405:Y 0.000808679
*RES
1 *405:Y resultado[2] 9.63 
*END

*D_NET *9 0.00171599
*CONN
*P resultado[3] O
*I *406:Y O *D gf180mcu_as_sc_mcu7t3v3__buff_2
*CAP
1 resultado[3] 0.000857994
2 *406:Y 0.000857994
*RES
1 *406:Y resultado[3] 9.858 
*END

*D_NET *10 0.00145325
*CONN
*P suma_resta I
*I *402:A I *D gf180mcu_as_sc_mcu7t3v3__buff_2
*CAP
1 suma_resta 0.000726626
2 *402:A 0.000726626
*RES
1 suma_resta *402:A 9.25 
*END

*D_NET *11 0.00125024
*CONN
*I *395:D I *D gf180mcu_as_sc_mcu7t3v3__dfsrtp_2
*I *376:Y O *D gf180mcu_as_sc_mcu7t3v3__aoi31_4
*CAP
1 *395:D 0.000557836
2 *376:Y 0.000557836
3 *395:D *376:D 0.000134564
*RES
1 *376:Y *395:D 12.42 
*END

*D_NET *12 0.000954425
*CONN
*I *397:D I *D gf180mcu_as_sc_mcu7t3v3__dfsrtp_2
*I *385:Y O *D gf180mcu_as_sc_mcu7t3v3__nand2_4
*CAP
1 *397:D 0.000474238
2 *385:Y 0.000474238
3 *397:D *397:CLK 5.9494e-06
4 *397:D *41:61 0
*RES
1 *385:Y *397:D 21.04 
*END

*D_NET *13 0.00245755
*CONN
*I *391:D I *D gf180mcu_as_sc_mcu7t3v3__dfsrtp_2
*I *386:Y O *D gf180mcu_as_sc_mcu7t3v3__xor2_2
*CAP
1 *391:D 0.000898975
2 *386:Y 0.000898975
3 *391:D *391:RN 0.000390856
4 *391:D *45:35 0.000210795
5 *391:D *47:19 5.79531e-05
*RES
1 *386:Y *391:D 23.624 
*END

*D_NET *14 0.000927438
*CONN
*I *393:D I *D gf180mcu_as_sc_mcu7t3v3__dfsrtp_2
*I *390:Y O *D gf180mcu_as_sc_mcu7t3v3__oai21_2
*CAP
1 *393:D 0.00031355
2 *390:Y 0.00031355
3 *393:D *19:10 0.000150169
4 *393:D *41:31 0.000150169
*RES
1 *390:Y *393:D 11.584 
*END

*D_NET *15 0.00360978
*CONN
*I *379:A I *D gf180mcu_as_sc_mcu7t3v3__nor2b_2
*I *382:A I *D gf180mcu_as_sc_mcu7t3v3__nand2_2
*I *365:A I *D gf180mcu_as_sc_mcu7t3v3__nand2_2
*I *362:Y O *D gf180mcu_as_sc_mcu7t3v3__nand2_2
*CAP
1 *379:A 0.000401688
2 *382:A 0.000181867
3 *365:A 0
4 *362:Y 0.000129306
5 *15:16 0.000567035
6 *15:8 0.000916162
7 *379:A *379:B 3.81519e-05
8 *379:A *380:B 0
9 *379:A *46:10 6.37861e-05
10 *379:A *46:12 4.8978e-06
11 *382:A *382:B 2.22758e-05
12 *382:A *383:C 2.9378e-06
13 *382:A *24:36 0
14 *382:A *30:10 0
15 *382:A *49:18 0.000169505
16 *15:8 *362:B 0.000310356
17 *15:16 *379:B 0
18 *15:16 *46:12 2.09451e-05
19 *15:16 *49:18 0.000780865
*RES
1 *362:Y *15:8 10.064 
2 *15:8 *15:16 7.464 
3 *15:16 *365:A 4.5 
4 *15:16 *382:A 5.868 
5 *15:8 *379:A 11.128 
*END

*D_NET *16 0.00277621
*CONN
*I *364:B I *D gf180mcu_as_sc_mcu7t3v3__nand2b_2
*I *369:B I *D gf180mcu_as_sc_mcu7t3v3__nand2_2
*I *363:Y O *D gf180mcu_as_sc_mcu7t3v3__inv_2
*CAP
1 *364:B 4.99814e-05
2 *369:B 0.000862826
3 *363:Y 0.000133479
4 *16:8 0.00104629
5 *364:B *368:A 0
6 *364:B *46:12 0
7 *369:B *368:B 0
8 *369:B *368:A 0
9 *369:B *371:C 0.000399267
10 *369:B *371:A 0.000233521
11 *369:B *387:B 5.13352e-06
12 *369:B *390:A 0
13 *16:8 *362:B 3.63776e-05
14 *16:8 *49:18 9.34034e-06
*RES
1 *363:Y *16:8 9.836 
2 *16:8 *369:B 15.08 
3 *16:8 *364:B 9.304 
*END

*D_NET *17 0.00136023
*CONN
*I *365:B I *D gf180mcu_as_sc_mcu7t3v3__nand2_2
*I *378:A I *D gf180mcu_as_sc_mcu7t3v3__nand2_2
*I *364:Y O *D gf180mcu_as_sc_mcu7t3v3__nand2b_2
*CAP
1 *365:B 0
2 *378:A 0.000248811
3 *364:Y 0.000244823
4 *17:6 0.000493634
5 *378:A *24:21 9.19302e-06
6 *378:A *24:36 2.93558e-05
7 *17:6 *49:18 0.000334415
*RES
1 *364:Y *17:6 6.476 
2 *17:6 *378:A 14.64 
3 *17:6 *365:B 4.5 
*END

*D_NET *18 0.00234769
*CONN
*I *374:A I *D gf180mcu_as_sc_mcu7t3v3__nand2b_2
*I *372:A I *D gf180mcu_as_sc_mcu7t3v3__nand2_2
*I *365:Y O *D gf180mcu_as_sc_mcu7t3v3__nand2_2
*CAP
1 *374:A 2.3623e-05
2 *372:A 0.000213444
3 *365:Y 0.00028119
4 *18:14 0.000518257
5 *372:A *374:B 0.000444619
6 *372:A *24:21 0.000211003
7 *372:A *41:46 6.21873e-05
8 *374:A *376:C 0
9 *18:14 *373:A 1.3758e-05
10 *18:14 *374:B 0.00046276
11 *18:14 *26:8 2.95786e-05
12 *18:14 *41:46 4.07825e-05
13 *18:14 *49:18 4.64832e-05
*RES
1 *365:Y *18:14 11.4157 
2 *18:14 *372:A 11.2963 
3 *18:14 *374:A 9.12757 
*END

*D_NET *19 0.00507334
*CONN
*I *389:A I *D gf180mcu_as_sc_mcu7t3v3__ao21_2
*I *371:A I *D gf180mcu_as_sc_mcu7t3v3__aoi21b_4
*I *388:A I *D gf180mcu_as_sc_mcu7t3v3__oai21_2
*I *366:Y O *D gf180mcu_as_sc_mcu7t3v3__inv_6
*CAP
1 *389:A 0
2 *371:A 0.000786087
3 *388:A 0.000173516
4 *366:Y 0.000894611
5 *19:21 0.00101811
6 *19:10 0.00130015
7 *371:A *368:B 8.3158e-06
8 *371:A *387:B 6.69628e-05
9 *371:A *390:A 0
10 *371:A *22:6 1.58725e-05
11 *371:A *37:10 5.62195e-05
12 *371:A *41:12 0.00014123
13 *388:A *388:B 2.145e-05
14 *388:A *389:C 4.90834e-05
15 *19:10 *366:A 3.85587e-06
16 *19:10 *386:B 0
17 *19:10 *390:C 0.000109012
18 *19:10 *41:31 0
19 *19:10 *44:10 4.51848e-05
20 *19:21 *388:B 0
21 *19:21 *390:A 0
22 *19:21 *37:10 0
23 *369:B *371:A 0.000233521
24 *393:D *19:10 0.000150169
25 *400:A *19:10 0
*RES
1 *366:Y *19:10 14.814 
2 *19:10 *388:A 10.216 
3 *19:10 *19:21 1.292 
4 *19:21 *371:A 14.5751 
5 *19:21 *389:A 9 
*END

*D_NET *20 0.00311154
*CONN
*I *368:B I *D gf180mcu_as_sc_mcu7t3v3__nand2_2
*I *390:A I *D gf180mcu_as_sc_mcu7t3v3__oai21_2
*I *367:Y O *D gf180mcu_as_sc_mcu7t3v3__inv_4
*CAP
1 *368:B 0.000493991
2 *390:A 0.000871876
3 *367:Y 1.96031e-05
4 *20:8 0.00138547
5 *368:B *369:A 0
6 *368:B *371:C 0.000131642
7 *368:B *371:B 6.99895e-05
8 *368:B *21:6 3.73535e-05
9 *368:B *22:6 8.93947e-06
10 *368:B *24:8 0
11 *390:A *41:27 5.96271e-05
12 *20:8 *369:A 9.88736e-06
13 *20:8 *48:10 1.48402e-05
14 *369:B *368:B 0
15 *369:B *390:A 0
16 *371:A *368:B 8.3158e-06
17 *371:A *390:A 0
18 *19:21 *390:A 0
*RES
1 *367:Y *20:8 9.114 
2 *20:8 *390:A 13.94 
3 *20:8 *368:B 12.192 
*END

*D_NET *21 0.0013989
*CONN
*I *371:B I *D gf180mcu_as_sc_mcu7t3v3__aoi21b_4
*I *387:B I *D gf180mcu_as_sc_mcu7t3v3__nand2_2
*I *368:Y O *D gf180mcu_as_sc_mcu7t3v3__nand2_2
*CAP
1 *371:B 0.00019926
2 *387:B 0.000295793
3 *368:Y 5.2766e-05
4 *21:6 0.000547819
5 *371:B *371:C 0
6 *387:B *371:C 5.37083e-05
7 *387:B *22:6 2.22657e-05
8 *387:B *37:10 2.6126e-05
9 *21:6 *371:C 2.17248e-05
10 *368:B *371:B 6.99895e-05
11 *368:B *21:6 3.73535e-05
12 *369:B *387:B 5.13352e-06
13 *371:A *387:B 6.69628e-05
*RES
1 *368:Y *21:6 4.956 
2 *21:6 *387:B 15.476 
3 *21:6 *371:B 5.868 
*END

*D_NET *22 0.000988533
*CONN
*I *370:A I *D gf180mcu_as_sc_mcu7t3v3__inv_2
*I *387:A I *D gf180mcu_as_sc_mcu7t3v3__nand2_2
*I *369:Y O *D gf180mcu_as_sc_mcu7t3v3__nand2_2
*CAP
1 *370:A 0.000172599
2 *387:A 0
3 *369:Y 0.000186541
4 *22:6 0.00035914
5 *370:A *371:C 9.58397e-05
6 *370:A *37:10 1.53689e-05
7 *22:6 *369:A 6.00599e-05
8 *22:6 *371:C 5.19077e-05
9 *368:B *22:6 8.93947e-06
10 *371:A *22:6 1.58725e-05
11 *387:B *22:6 2.22657e-05
*RES
1 *369:Y *22:6 5.868 
2 *22:6 *387:A 4.5 
3 *22:6 *370:A 5.868 
*END

*D_NET *23 0.00185887
*CONN
*I *371:C I *D gf180mcu_as_sc_mcu7t3v3__aoi21b_4
*I *370:Y O *D gf180mcu_as_sc_mcu7t3v3__inv_2
*CAP
1 *371:C 0.000508488
2 *370:Y 0.000508488
3 *371:C *368:A 8.78044e-05
4 *368:B *371:C 0.000131642
5 *369:B *371:C 0.000399267
6 *370:A *371:C 9.58397e-05
7 *371:B *371:C 0
8 *387:B *371:C 5.37083e-05
9 *21:6 *371:C 2.17248e-05
10 *22:6 *371:C 5.19077e-05
*RES
1 *370:Y *371:C 22.56 
*END

*D_NET *24 0.00670391
*CONN
*I *379:B I *D gf180mcu_as_sc_mcu7t3v3__nor2b_2
*I *378:B I *D gf180mcu_as_sc_mcu7t3v3__nand2_2
*I *373:A I *D gf180mcu_as_sc_mcu7t3v3__inv_2
*I *372:B I *D gf180mcu_as_sc_mcu7t3v3__nand2_2
*I *371:Y O *D gf180mcu_as_sc_mcu7t3v3__aoi21b_4
*CAP
1 *379:B 0.000665655
2 *378:B 6.3845e-05
3 *373:A 3.2491e-05
4 *372:B 0.000100819
5 *371:Y 0.000598084
6 *24:36 0.00107208
7 *24:21 0.000765903
8 *24:8 0.00108973
9 *372:B *376:B 0.000115515
10 *373:A *26:8 2.95786e-05
11 *373:A *49:18 0.000137785
12 *379:B *380:B 1.5015e-05
13 *379:B *46:10 0
14 *24:21 *374:B 0.00100724
15 *24:21 *382:B 8.8425e-05
16 *24:21 *41:46 0
17 *24:36 *382:B 0.000369651
18 *24:36 *383:C 0.000105988
19 *24:36 *30:10 0.000144643
20 *368:B *24:8 0
21 *372:A *24:21 0.000211003
22 *378:A *24:21 9.19302e-06
23 *378:A *24:36 2.93558e-05
24 *379:A *379:B 3.81519e-05
25 *382:A *24:36 0
26 *15:16 *379:B 0
27 *18:14 *373:A 1.3758e-05
*RES
1 *371:Y *24:8 7.844 
2 *24:8 *372:B 5.26 
3 *24:8 *24:21 8.528 
4 *24:21 *373:A 9.38 
5 *24:21 *24:36 7.084 
6 *24:36 *378:B 4.88 
7 *24:36 *379:B 17.224 
*END

*D_NET *25 0.000563359
*CONN
*I *376:B I *D gf180mcu_as_sc_mcu7t3v3__aoi31_4
*I *372:Y O *D gf180mcu_as_sc_mcu7t3v3__nand2_2
*CAP
1 *376:B 0.000222719
2 *372:Y 0.000222719
3 *376:B *376:A 2.40654e-06
4 *376:B *376:C 0
5 *376:B *44:23 0
6 *372:B *376:B 0.000115515
*RES
1 *372:Y *376:B 10.292 
*END

*D_NET *26 0.00308588
*CONN
*I *382:B I *D gf180mcu_as_sc_mcu7t3v3__nand2_2
*I *374:B I *D gf180mcu_as_sc_mcu7t3v3__nand2b_2
*I *373:Y O *D gf180mcu_as_sc_mcu7t3v3__inv_2
*CAP
1 *382:B 0.000157144
2 *374:B 6.17338e-05
3 *373:Y 1.29763e-05
4 *26:8 0.000231854
5 *374:B *376:C 8.55242e-05
6 *382:B *383:C 8.25154e-05
7 *382:B *41:61 0
8 *372:A *374:B 0.000444619
9 *373:A *26:8 2.95786e-05
10 *382:A *382:B 2.22758e-05
11 *18:14 *374:B 0.00046276
12 *18:14 *26:8 2.95786e-05
13 *24:21 *374:B 0.00100724
14 *24:21 *382:B 8.8425e-05
15 *24:36 *382:B 0.000369651
*RES
1 *373:Y *26:8 9.152 
2 *26:8 *374:B 11.66 
3 *26:8 *382:B 10.444 
*END

*D_NET *27 0.000642729
*CONN
*I *376:C I *D gf180mcu_as_sc_mcu7t3v3__aoi31_4
*I *374:Y O *D gf180mcu_as_sc_mcu7t3v3__nand2b_2
*CAP
1 *376:C 0.000277772
2 *374:Y 0.000277772
3 *376:C *376:D 1.66121e-06
4 *374:B *376:C 8.55242e-05
5 *374:A *376:C 0
6 *376:B *376:C 0
*RES
1 *374:Y *376:C 10.596 
*END

*D_NET *28 0.000905079
*CONN
*I *376:D I *D gf180mcu_as_sc_mcu7t3v3__aoi31_4
*I *375:Y O *D gf180mcu_as_sc_mcu7t3v3__nor2_2
*CAP
1 *376:D 0.000384427
2 *375:Y 0.000384427
3 *376:C *376:D 1.66121e-06
4 *395:D *376:D 0.000134564
*RES
1 *375:Y *376:D 11.812 
*END

*D_NET *29 0.000637214
*CONN
*I *381:A I *D gf180mcu_as_sc_mcu7t3v3__nand3_2
*I *377:Y O *D gf180mcu_as_sc_mcu7t3v3__inv_2
*CAP
1 *381:A 0.000301112
2 *377:Y 0.000301112
3 *381:A *381:C 5.9494e-06
4 *381:A *385:A 2.90407e-05
*RES
1 *377:Y *381:A 19.9 
*END

*D_NET *30 0.00315535
*CONN
*I *383:B I *D gf180mcu_as_sc_mcu7t3v3__nand3_2
*I *381:B I *D gf180mcu_as_sc_mcu7t3v3__nand3_2
*I *378:Y O *D gf180mcu_as_sc_mcu7t3v3__nand2_2
*CAP
1 *383:B 0.00021734
2 *381:B 0.000404302
3 *378:Y 0.00050943
4 *30:10 0.00113107
5 *381:B *381:C 5.41042e-05
6 *383:B *380:A 9.73789e-05
7 *383:B *383:C 0.000233408
8 *383:B *384:B 5.22519e-05
9 *383:B *41:61 0.000107656
10 *30:10 *383:C 0.00020377
11 *382:A *30:10 0
12 *24:36 *30:10 0.000144643
*RES
1 *378:Y *30:10 12.344 
2 *30:10 *381:B 11.356 
3 *30:10 *383:B 19.976 
*END

*D_NET *31 0.000911229
*CONN
*I *380:B I *D gf180mcu_as_sc_mcu7t3v3__nor2b_2
*I *379:Y O *D gf180mcu_as_sc_mcu7t3v3__nor2b_2
*CAP
1 *380:B 0.000448107
2 *379:Y 0.000448107
3 *380:B *46:10 0
4 *379:B *380:B 1.5015e-05
5 *379:A *380:B 0
*RES
1 *379:Y *380:B 20.964 
*END

*D_NET *32 0.00100809
*CONN
*I *381:C I *D gf180mcu_as_sc_mcu7t3v3__nand3_2
*I *380:Y O *D gf180mcu_as_sc_mcu7t3v3__nor2b_2
*CAP
1 *381:C 0.000397889
2 *380:Y 0.000397889
3 *381:C *380:A 0.000152259
4 *381:A *381:C 5.9494e-06
5 *381:B *381:C 5.41042e-05
*RES
1 *380:Y *381:C 11.66 
*END

*D_NET *33 0.00122967
*CONN
*I *385:A I *D gf180mcu_as_sc_mcu7t3v3__nand2_4
*I *381:Y O *D gf180mcu_as_sc_mcu7t3v3__nand3_2
*CAP
1 *385:A 0.000405432
2 *381:Y 0.000405432
3 *385:A *377:A 3.36123e-05
4 *385:A *380:A 4.55111e-05
5 *385:A *384:B 0.000146053
6 *385:A *385:B 0.000164594
7 *381:A *385:A 2.90407e-05
*RES
1 *381:Y *385:A 12.344 
*END

*D_NET *34 0.00212391
*CONN
*I *383:C I *D gf180mcu_as_sc_mcu7t3v3__nand3_2
*I *382:Y O *D gf180mcu_as_sc_mcu7t3v3__nand2_2
*CAP
1 *383:C 0.000690369
2 *382:Y 0.000690369
3 *383:C *41:61 0.000114549
4 *382:B *383:C 8.25154e-05
5 *382:A *383:C 2.9378e-06
6 *383:B *383:C 0.000233408
7 *24:36 *383:C 0.000105988
8 *30:10 *383:C 0.00020377
*RES
1 *382:Y *383:C 23.092 
*END

*D_NET *35 0.000709702
*CONN
*I *384:B I *D gf180mcu_as_sc_mcu7t3v3__nand2_2
*I *383:Y O *D gf180mcu_as_sc_mcu7t3v3__nand3_2
*CAP
1 *384:B 0.000199897
2 *383:Y 0.000199897
3 *384:B *380:A 3.73535e-05
4 *384:B *385:B 0
5 *384:B *41:61 7.42484e-05
6 *383:B *384:B 5.22519e-05
7 *385:A *384:B 0.000146053
*RES
1 *383:Y *384:B 10.9 
*END

*D_NET *36 0.000428286
*CONN
*I *385:B I *D gf180mcu_as_sc_mcu7t3v3__nand2_4
*I *384:Y O *D gf180mcu_as_sc_mcu7t3v3__nand2_2
*CAP
1 *385:B 0.000131846
2 *384:Y 0.000131846
3 *384:B *385:B 0
4 *385:A *385:B 0.000164594
*RES
1 *384:Y *385:B 10.14 
*END

*D_NET *37 0.00307173
*CONN
*I *389:B I *D gf180mcu_as_sc_mcu7t3v3__ao21_2
*I *388:B I *D gf180mcu_as_sc_mcu7t3v3__oai21_2
*I *387:Y O *D gf180mcu_as_sc_mcu7t3v3__nand2_2
*CAP
1 *389:B 0.000146964
2 *388:B 0.00014781
3 *387:Y 0.000546049
4 *37:10 0.000840822
5 *389:B *389:C 0.000145452
6 *389:B *41:27 0.000113807
7 *37:10 *41:12 0.00101167
8 *370:A *37:10 1.53689e-05
9 *371:A *37:10 5.62195e-05
10 *387:B *37:10 2.6126e-05
11 *388:A *388:B 2.145e-05
12 *19:21 *388:B 0
13 *19:21 *37:10 0
*RES
1 *387:Y *37:10 13.636 
2 *37:10 *388:B 9.94457 
3 *37:10 *389:B 10.216 
*END

*D_NET *38 0.000426621
*CONN
*I *389:C I *D gf180mcu_as_sc_mcu7t3v3__ao21_2
*I *388:Y O *D gf180mcu_as_sc_mcu7t3v3__oai21_2
*CAP
1 *389:C 0.0001005
2 *388:Y 0.0001005
3 *389:C *41:27 3.1086e-05
4 *388:A *389:C 4.90834e-05
5 *389:B *389:C 0.000145452
*RES
1 *388:Y *389:C 10.0613 
*END

*D_NET *39 0.000452533
*CONN
*I *390:C I *D gf180mcu_as_sc_mcu7t3v3__oai21_2
*I *389:Y O *D gf180mcu_as_sc_mcu7t3v3__ao21_2
*CAP
1 *390:C 0.000164428
2 *389:Y 0.000164428
3 *390:C *41:27 7.11924e-06
4 *390:C *41:31 7.54589e-06
5 *19:10 *390:C 0.000109012
*RES
1 *389:Y *390:C 10.368 
*END

*D_NET *40 0.000560954
*CONN
*I *393:SN I *D gf180mcu_as_sc_mcu7t3v3__dfsrtp_2
*I *394:ONE O *D gf180mcu_as_sc_mcu7t3v3__tieh_4
*CAP
1 *393:SN 0.000258425
2 *394:ONE 0.000258425
3 *393:SN *393:RN 4.41053e-05
*RES
1 *394:ONE *393:SN 5.982 
*END

*D_NET *41 0.0153419
*CONN
*I *390:B I *D gf180mcu_as_sc_mcu7t3v3__oai21_2
*I *386:B I *D gf180mcu_as_sc_mcu7t3v3__xor2_2
*I *380:A I *D gf180mcu_as_sc_mcu7t3v3__nor2b_2
*I *383:A I *D gf180mcu_as_sc_mcu7t3v3__nand3_2
*I *375:B I *D gf180mcu_as_sc_mcu7t3v3__nor2_2
*I *376:A I *D gf180mcu_as_sc_mcu7t3v3__aoi31_4
*I *388:C I *D gf180mcu_as_sc_mcu7t3v3__oai21_2
*I *399:Y O *D gf180mcu_as_sc_mcu7t3v3__buff_2
*CAP
1 *390:B 6.21085e-06
2 *386:B 0.00033966
3 *380:A 0.000488957
4 *383:A 0
5 *375:B 0.000141811
6 *376:A 2.15797e-05
7 *388:C 4.47715e-05
8 *399:Y 0.00151133
9 *41:61 0.00146335
10 *41:46 0.00199872
11 *41:35 0.00184314
12 *41:31 0.00178113
13 *41:27 0.000876287
14 *41:12 0.00192376
15 *375:B *49:14 4.02187e-06
16 *375:B *49:18 0.000231987
17 *376:A *44:23 2.23477e-05
18 *386:B *366:A 0.000184472
19 *386:B *47:19 2.45159e-05
20 *41:35 *44:23 0.000177233
21 *371:A *41:12 0.00014123
22 *372:A *41:46 6.21873e-05
23 *376:B *376:A 2.40654e-06
24 *381:C *380:A 0.000152259
25 *382:B *41:61 0
26 *383:B *380:A 9.73789e-05
27 *383:B *41:61 0.000107656
28 *383:C *41:61 0.000114549
29 *384:B *380:A 3.73535e-05
30 *384:B *41:61 7.42484e-05
31 *385:A *380:A 4.55111e-05
32 *389:B *41:27 0.000113807
33 *389:C *41:27 3.1086e-05
34 *390:A *41:27 5.96271e-05
35 *390:C *41:27 7.11924e-06
36 *390:C *41:31 7.54589e-06
37 *393:D *41:31 0.000150169
38 *397:D *41:61 0
39 *18:14 *41:46 4.07825e-05
40 *19:10 *386:B 0
41 *19:10 *41:31 0
42 *24:21 *41:46 0
43 *37:10 *41:12 0.00101167
*RES
1 *399:Y *41:12 23.532 
2 *41:12 *388:C 4.804 
3 *41:12 *41:27 2.66 
4 *41:27 *41:31 3.268 
5 *41:31 *41:35 10.504 
6 *41:35 *376:A 9.152 
7 *41:35 *41:46 5.244 
8 *41:46 *375:B 10.3124 
9 *41:46 *41:61 10.732 
10 *41:61 *383:A 4.5 
11 *41:61 *380:A 7.996 
12 *41:31 *386:B 6.95914 
13 *41:27 *390:B 4.652 
*END

*D_NET *42 0.000374895
*CONN
*I *397:SN I *D gf180mcu_as_sc_mcu7t3v3__dfsrtp_2
*I *398:ONE O *D gf180mcu_as_sc_mcu7t3v3__tieh_4
*CAP
1 *397:SN 0.000187447
2 *398:ONE 0.000187447
3 *397:SN *45:29 0
*RES
1 *398:ONE *397:SN 5.526 
*END

*D_NET *43 0.000725747
*CONN
*I *395:SN I *D gf180mcu_as_sc_mcu7t3v3__dfsrtp_2
*I *396:ONE O *D gf180mcu_as_sc_mcu7t3v3__tieh_4
*CAP
1 *395:SN 0.000331892
2 *396:ONE 0.000331892
3 *395:SN *395:RN 7.4837e-06
4 *395:SN *405:A 5.44792e-05
*RES
1 *396:ONE *395:SN 15.514 
*END

*D_NET *44 0.0103598
*CONN
*I *391:CLK I *D gf180mcu_as_sc_mcu7t3v3__dfsrtp_2
*I *397:CLK I *D gf180mcu_as_sc_mcu7t3v3__dfsrtp_2
*I *395:CLK I *D gf180mcu_as_sc_mcu7t3v3__dfsrtp_2
*I *393:CLK I *D gf180mcu_as_sc_mcu7t3v3__dfsrtp_2
*I *400:Y O *D gf180mcu_as_sc_mcu7t3v3__buff_2
*CAP
1 *391:CLK 0
2 *397:CLK 0.00076993
3 *395:CLK 0
4 *393:CLK 0
5 *400:Y 0.000545401
6 *44:27 0.00106445
7 *44:23 0.00204727
8 *44:10 0.00229815
9 *397:CLK *405:A 0
10 *397:CLK *45:29 0.000595367
11 *397:CLK *45:35 0.0016613
12 *397:CLK *49:8 0.000122689
13 *397:CLK *49:14 0.000169768
14 *44:23 *404:A 9.56437e-05
15 *44:23 *48:10 1.34037e-05
16 *44:27 *45:35 0.000725741
17 *376:A *44:23 2.23477e-05
18 *376:B *44:23 0
19 *397:D *397:CLK 5.9494e-06
20 *19:10 *44:10 4.51848e-05
21 *41:35 *44:23 0.000177233
*RES
1 *400:Y *44:10 12.344 
2 *44:10 *393:CLK 9 
3 *44:10 *44:23 15.292 
4 *44:23 *44:27 7.008 
5 *44:27 *395:CLK 9 
6 *44:27 *397:CLK 16.144 
7 *44:23 *391:CLK 4.5 
*END

*D_NET *45 0.0133669
*CONN
*I *395:RN I *D gf180mcu_as_sc_mcu7t3v3__dfsrtp_2
*I *393:RN I *D gf180mcu_as_sc_mcu7t3v3__dfsrtp_2
*I *391:RN I *D gf180mcu_as_sc_mcu7t3v3__dfsrtp_2
*I *397:RN I *D gf180mcu_as_sc_mcu7t3v3__dfsrtp_2
*I *401:Y O *D gf180mcu_as_sc_mcu7t3v3__buff_2
*CAP
1 *395:RN 1.52989e-05
2 *393:RN 0.000814658
3 *391:RN 0.00036385
4 *397:RN 0
5 *401:Y 0.0010499
6 *45:35 0.0022065
7 *45:29 0.00237526
8 *45:14 0.00238187
9 *391:RN *47:8 2.57058e-06
10 *393:RN *391:SN 8.35515e-05
11 *393:RN *404:A 1.87684e-05
12 *393:RN *48:8 1.33547e-05
13 *393:RN *48:10 0
14 *395:RN *405:A 5.36368e-05
15 *45:14 *377:A 0
16 *45:14 *50:12 0.000330019
17 *45:29 *406:A 7.11022e-06
18 *45:29 *50:12 1.48572e-05
19 *391:D *391:RN 0.000390856
20 *391:D *45:35 0.000210795
21 *393:SN *393:RN 4.41053e-05
22 *395:SN *395:RN 7.4837e-06
23 *397:CLK *45:29 0.000595367
24 *397:CLK *45:35 0.0016613
25 *397:SN *45:29 0
26 *44:27 *45:35 0.000725741
*RES
1 *401:Y *45:14 19.6981 
2 *45:14 *397:RN 4.5 
3 *45:14 *45:29 12.3619 
4 *45:29 *45:35 8.892 
5 *45:35 *391:RN 11.66 
6 *45:35 *393:RN 22.7554 
7 *45:29 *395:RN 9.152 
*END

*D_NET *46 0.00578581
*CONN
*I *362:A I *D gf180mcu_as_sc_mcu7t3v3__nand2_2
*I *363:A I *D gf180mcu_as_sc_mcu7t3v3__inv_2
*I *368:A I *D gf180mcu_as_sc_mcu7t3v3__nand2_2
*I *402:Y O *D gf180mcu_as_sc_mcu7t3v3__buff_2
*CAP
1 *362:A 0
2 *363:A 0
3 *368:A 0.000732292
4 *402:Y 0.00191201
5 *46:12 0.000892172
6 *46:10 0.00207189
7 *364:B *368:A 0
8 *364:B *46:12 0
9 *369:B *368:A 0
10 *371:C *368:A 8.78044e-05
11 *379:B *46:10 0
12 *379:A *46:10 6.37861e-05
13 *379:A *46:12 4.8978e-06
14 *380:B *46:10 0
15 *15:16 *46:12 2.09451e-05
*RES
1 *402:Y *46:10 20.248 
2 *46:10 *46:12 0.988 
3 *46:12 *368:A 13.788 
4 *46:12 *363:A 9 
5 *46:10 *362:A 9 
*END

*D_NET *47 0.00224477
*CONN
*I *386:A I *D gf180mcu_as_sc_mcu7t3v3__xor2_2
*I *366:A I *D gf180mcu_as_sc_mcu7t3v3__inv_6
*I *403:A I *D gf180mcu_as_sc_mcu7t3v3__buff_2
*I *391:Q O *D gf180mcu_as_sc_mcu7t3v3__dfsrtp_2
*CAP
1 *386:A 0.000206551
2 *366:A 0.000142406
3 *403:A 0.000171488
4 *391:Q 0.000215298
5 *47:19 0.000598917
6 *47:8 0.000636746
7 *386:B *366:A 0.000184472
8 *386:B *47:19 2.45159e-05
9 *391:RN *47:8 2.57058e-06
10 *391:D *47:19 5.79531e-05
11 *19:10 *366:A 3.85587e-06
*RES
1 *391:Q *47:8 5.564 
2 *47:8 *403:A 5.412 
3 *47:8 *47:19 1.748 
4 *47:19 *366:A 5.716 
5 *47:19 *386:A 14.64 
*END

*D_NET *48 0.00369078
*CONN
*I *404:A I *D gf180mcu_as_sc_mcu7t3v3__buff_2
*I *367:A I *D gf180mcu_as_sc_mcu7t3v3__inv_4
*I *369:A I *D gf180mcu_as_sc_mcu7t3v3__nand2_2
*I *393:Q O *D gf180mcu_as_sc_mcu7t3v3__dfsrtp_2
*CAP
1 *404:A 0.000961797
2 *367:A 0
3 *369:A 0.00021455
4 *393:Q 0.000105234
5 *48:10 0.00066538
6 *48:8 0.00151786
7 *368:B *369:A 0
8 *393:RN *404:A 1.87684e-05
9 *393:RN *48:8 1.33547e-05
10 *393:RN *48:10 0
11 *20:8 *369:A 9.88736e-06
12 *20:8 *48:10 1.48402e-05
13 *22:6 *369:A 6.00599e-05
14 *44:23 *404:A 9.56437e-05
15 *44:23 *48:10 1.34037e-05
*RES
1 *393:Q *48:8 5.108 
2 *48:8 *48:10 2.66 
3 *48:10 *369:A 5.868 
4 *48:10 *367:A 4.5 
5 *48:8 *404:A 10.352 
*END

*D_NET *49 0.00572046
*CONN
*I *405:A I *D gf180mcu_as_sc_mcu7t3v3__buff_2
*I *375:A I *D gf180mcu_as_sc_mcu7t3v3__nor2_2
*I *364:A I *D gf180mcu_as_sc_mcu7t3v3__nand2b_2
*I *362:B I *D gf180mcu_as_sc_mcu7t3v3__nand2_2
*I *395:Q O *D gf180mcu_as_sc_mcu7t3v3__dfsrtp_2
*CAP
1 *405:A 0.000267663
2 *375:A 0
3 *364:A 6.85888e-05
4 *362:B 9.54413e-05
5 *395:Q 0.000128694
6 *49:18 0.000723272
7 *49:14 0.00106899
8 *49:8 0.000906101
9 *373:A *49:18 0.000137785
10 *375:B *49:14 4.02187e-06
11 *375:B *49:18 0.000231987
12 *382:A *49:18 0.000169505
13 *395:RN *405:A 5.36368e-05
14 *395:SN *405:A 5.44792e-05
15 *397:CLK *405:A 0
16 *397:CLK *49:8 0.000122689
17 *397:CLK *49:14 0.000169768
18 *15:8 *362:B 0.000310356
19 *15:16 *49:18 0.000780865
20 *16:8 *362:B 3.63776e-05
21 *16:8 *49:18 9.34034e-06
22 *17:6 *49:18 0.000334415
23 *18:14 *49:18 4.64832e-05
*RES
1 *395:Q *49:8 9.836 
2 *49:8 *49:14 7.54 
3 *49:14 *49:18 5.852 
4 *49:18 *362:B 5.564 
5 *49:18 *364:A 4.98586 
6 *49:14 *375:A 4.5 
7 *49:8 *405:A 10.596 
*END

*D_NET *50 0.00313264
*CONN
*I *406:A I *D gf180mcu_as_sc_mcu7t3v3__buff_2
*I *377:A I *D gf180mcu_as_sc_mcu7t3v3__inv_2
*I *384:A I *D gf180mcu_as_sc_mcu7t3v3__nand2_2
*I *397:Q O *D gf180mcu_as_sc_mcu7t3v3__dfsrtp_2
*CAP
1 *406:A 0.000402655
2 *377:A 0.000188532
3 *384:A 0.000159641
4 *397:Q 2.92561e-05
5 *50:12 0.000941608
6 *50:6 0.00102535
7 *385:A *377:A 3.36123e-05
8 *45:14 *377:A 0
9 *45:14 *50:12 0.000330019
10 *45:29 *406:A 7.11022e-06
11 *45:29 *50:12 1.48572e-05
*RES
1 *397:Q *50:6 4.728 
2 *50:6 *50:12 8.3 
3 *50:12 *384:A 9.684 
4 *50:12 *377:A 10.14 
5 *50:6 *406:A 6.856 
*END

*D_NET *51 0.000930768
*CONN
*I *391:SN I *D gf180mcu_as_sc_mcu7t3v3__dfsrtp_2
*I *392:ONE O *D gf180mcu_as_sc_mcu7t3v3__tieh_4
*CAP
1 *391:SN 0.000423608
2 *392:ONE 0.000423608
3 *393:RN *391:SN 8.35515e-05
*RES
1 *392:ONE *391:SN 6.59 
*END
