*SPEF "ieee 1481-1999"
*DESIGN "contador"
*DATE "23:10:06 Monday October 05, 2026"
*VENDOR "The OpenROAD Project"
*PROGRAM "OpenROAD"
*VERSION "dcf36133a369abc8f3c5e5738cd4d82e4903c0e0"
*DESIGN_FLOW "NAME_SCOPE LOCAL" "PIN_CAP NONE"
*DIVIDER /
*DELIMITER :
*BUS_DELIMITER []
*T_UNIT 1 NS
*C_UNIT 1 PF
*R_UNIT 1 OHM
*L_UNIT 1 HENRY

*NAME_MAP
*3 enable
*4 reloj
*5 reset
*6 resultado[0]
*7 resultado[1]
*8 resultado[2]
*9 resultado[3]
*10 suma_resta
*11 _00_
*12 _01_
*13 _02_
*14 _03_
*15 _04_
*16 _05_
*17 _06_
*18 _07_
*19 _08_
*20 _09_
*21 _10_
*22 _11_
*23 _12_
*24 _13_
*25 _14_
*26 _15_
*27 _16_
*28 _17_
*29 _18_
*30 _19_
*31 _20_
*32 _21_
*33 _22_
*34 _23_
*35 _24_
*36 _25_
*37 _26_
*38 _27_
*39 _28_
*40 net
*41 net1
*42 net10
*43 net11
*44 net2
*45 net3
*46 net4
*47 net5
*48 net6
*49 net7
*50 net8
*51 net9
*52 FILLER_0_104
*53 FILLER_0_120
*54 FILLER_0_127
*55 FILLER_0_135
*56 FILLER_0_138
*57 FILLER_0_146
*58 FILLER_0_150
*59 FILLER_0_18
*60 FILLER_0_2
*61 FILLER_0_42
*62 FILLER_0_58
*63 FILLER_0_66
*64 FILLER_0_70
*65 FILLER_0_86
*66 FILLER_10_107
*67 FILLER_10_123
*68 FILLER_10_138
*69 FILLER_10_146
*70 FILLER_10_150
*71 FILLER_10_18
*72 FILLER_10_2
*73 FILLER_10_34
*74 FILLER_10_37
*75 FILLER_10_53
*76 FILLER_10_69
*77 FILLER_10_85
*78 FILLER_10_89
*79 FILLER_10_97
*80 FILLER_11_10
*81 FILLER_11_102
*82 FILLER_11_118
*83 FILLER_11_122
*84 FILLER_11_139
*85 FILLER_11_142
*86 FILLER_11_150
*87 FILLER_11_2
*88 FILLER_11_51
*89 FILLER_11_59
*90 FILLER_11_72
*91 FILLER_11_84
*92 FILLER_11_88
*93 FILLER_11_94
*94 FILLER_12_103
*95 FILLER_12_107
*96 FILLER_12_123
*97 FILLER_12_127
*98 FILLER_12_136
*99 FILLER_12_18
*100 FILLER_12_2
*101 FILLER_12_34
*102 FILLER_12_41
*103 FILLER_12_83
*104 FILLER_12_99
*105 FILLER_13_113
*106 FILLER_13_121
*107 FILLER_13_123
*108 FILLER_13_137
*109 FILLER_13_139
*110 FILLER_13_142
*111 FILLER_13_150
*112 FILLER_13_19
*113 FILLER_13_2
*114 FILLER_13_35
*115 FILLER_13_51
*116 FILLER_13_6
*117 FILLER_13_67
*118 FILLER_13_69
*119 FILLER_13_72
*120 FILLER_13_8
*121 FILLER_13_88
*122 FILLER_13_97
*123 FILLER_14_101
*124 FILLER_14_107
*125 FILLER_14_148
*126 FILLER_14_2
*127 FILLER_14_24
*128 FILLER_14_32
*129 FILLER_14_34
*130 FILLER_14_37
*131 FILLER_14_45
*132 FILLER_14_61
*133 FILLER_14_77
*134 FILLER_14_93
*135 FILLER_15_109
*136 FILLER_15_125
*137 FILLER_15_129
*138 FILLER_15_131
*139 FILLER_15_136
*140 FILLER_15_142
*141 FILLER_15_150
*142 FILLER_15_18
*143 FILLER_15_2
*144 FILLER_15_57
*145 FILLER_15_65
*146 FILLER_15_69
*147 FILLER_16_10
*148 FILLER_16_104
*149 FILLER_16_120
*150 FILLER_16_138
*151 FILLER_16_142
*152 FILLER_16_149
*153 FILLER_16_151
*154 FILLER_16_17
*155 FILLER_16_2
*156 FILLER_16_33
*157 FILLER_16_36
*158 FILLER_16_52
*159 FILLER_16_54
*160 FILLER_16_61
*161 FILLER_16_65
*162 FILLER_16_67
*163 FILLER_16_70
*164 FILLER_16_86
*165 FILLER_16_94
*166 FILLER_1_104
*167 FILLER_1_120
*168 FILLER_1_136
*169 FILLER_1_142
*170 FILLER_1_150
*171 FILLER_1_18
*172 FILLER_1_2
*173 FILLER_1_34
*174 FILLER_1_50
*175 FILLER_1_66
*176 FILLER_1_72
*177 FILLER_1_88
*178 FILLER_2_101
*179 FILLER_2_107
*180 FILLER_2_123
*181 FILLER_2_139
*182 FILLER_2_147
*183 FILLER_2_151
*184 FILLER_2_18
*185 FILLER_2_2
*186 FILLER_2_34
*187 FILLER_2_37
*188 FILLER_2_53
*189 FILLER_2_69
*190 FILLER_2_85
*191 FILLER_3_104
*192 FILLER_3_120
*193 FILLER_3_136
*194 FILLER_3_142
*195 FILLER_3_150
*196 FILLER_3_18
*197 FILLER_3_2
*198 FILLER_3_34
*199 FILLER_3_50
*200 FILLER_3_66
*201 FILLER_3_72
*202 FILLER_3_88
*203 FILLER_4_101
*204 FILLER_4_107
*205 FILLER_4_123
*206 FILLER_4_139
*207 FILLER_4_147
*208 FILLER_4_151
*209 FILLER_4_18
*210 FILLER_4_2
*211 FILLER_4_34
*212 FILLER_4_37
*213 FILLER_4_53
*214 FILLER_4_69
*215 FILLER_4_85
*216 FILLER_5_104
*217 FILLER_5_120
*218 FILLER_5_136
*219 FILLER_5_142
*220 FILLER_5_150
*221 FILLER_5_18
*222 FILLER_5_2
*223 FILLER_5_34
*224 FILLER_5_50
*225 FILLER_5_66
*226 FILLER_5_72
*227 FILLER_5_88
*228 FILLER_6_107
*229 FILLER_6_123
*230 FILLER_6_139
*231 FILLER_6_147
*232 FILLER_6_151
*233 FILLER_6_18
*234 FILLER_6_2
*235 FILLER_6_34
*236 FILLER_6_37
*237 FILLER_6_57
*238 FILLER_6_73
*239 FILLER_6_89
*240 FILLER_7_10
*241 FILLER_7_101
*242 FILLER_7_117
*243 FILLER_7_133
*244 FILLER_7_137
*245 FILLER_7_139
*246 FILLER_7_142
*247 FILLER_7_150
*248 FILLER_7_2
*249 FILLER_7_22
*250 FILLER_7_38
*251 FILLER_7_46
*252 FILLER_7_54
*253 FILLER_7_63
*254 FILLER_7_67
*255 FILLER_7_69
*256 FILLER_7_72
*257 FILLER_7_88
*258 FILLER_7_93
*259 FILLER_8_10
*260 FILLER_8_100
*261 FILLER_8_104
*262 FILLER_8_117
*263 FILLER_8_12
*264 FILLER_8_125
*265 FILLER_8_136
*266 FILLER_8_2
*267 FILLER_8_23
*268 FILLER_8_31
*269 FILLER_8_37
*270 FILLER_8_45
*271 FILLER_8_75
*272 FILLER_8_83
*273 FILLER_8_87
*274 FILLER_8_89
*275 FILLER_9_104
*276 FILLER_9_12
*277 FILLER_9_120
*278 FILLER_9_136
*279 FILLER_9_142
*280 FILLER_9_23
*281 FILLER_9_39
*282 FILLER_9_47
*283 FILLER_9_49
*284 FILLER_9_57
*285 FILLER_9_65
*286 FILLER_9_69
*287 FILLER_9_72
*288 FILLER_9_8
*289 FILLER_9_88
*290 PHY_EDGE_ROW_0_Left_17
*291 PHY_EDGE_ROW_0_Right_0
*292 PHY_EDGE_ROW_10_Left_27
*293 PHY_EDGE_ROW_10_Right_10
*294 PHY_EDGE_ROW_11_Left_28
*295 PHY_EDGE_ROW_11_Right_11
*296 PHY_EDGE_ROW_12_Left_29
*297 PHY_EDGE_ROW_12_Right_12
*298 PHY_EDGE_ROW_13_Left_30
*299 PHY_EDGE_ROW_13_Right_13
*300 PHY_EDGE_ROW_14_Left_31
*301 PHY_EDGE_ROW_14_Right_14
*302 PHY_EDGE_ROW_15_Left_32
*303 PHY_EDGE_ROW_15_Right_15
*304 PHY_EDGE_ROW_16_Left_33
*305 PHY_EDGE_ROW_16_Right_16
*306 PHY_EDGE_ROW_1_Left_18
*307 PHY_EDGE_ROW_1_Right_1
*308 PHY_EDGE_ROW_2_Left_19
*309 PHY_EDGE_ROW_2_Right_2
*310 PHY_EDGE_ROW_3_Left_20
*311 PHY_EDGE_ROW_3_Right_3
*312 PHY_EDGE_ROW_4_Left_21
*313 PHY_EDGE_ROW_4_Right_4
*314 PHY_EDGE_ROW_5_Left_22
*315 PHY_EDGE_ROW_5_Right_5
*316 PHY_EDGE_ROW_6_Left_23
*317 PHY_EDGE_ROW_6_Right_6
*318 PHY_EDGE_ROW_7_Left_24
*319 PHY_EDGE_ROW_7_Right_7
*320 PHY_EDGE_ROW_8_Left_25
*321 PHY_EDGE_ROW_8_Right_8
*322 PHY_EDGE_ROW_9_Left_26
*323 PHY_EDGE_ROW_9_Right_9
*324 TAP_TAPCELL_ROW_0_34
*325 TAP_TAPCELL_ROW_0_35
*326 TAP_TAPCELL_ROW_0_36
*327 TAP_TAPCELL_ROW_0_37
*328 TAP_TAPCELL_ROW_10_56
*329 TAP_TAPCELL_ROW_10_57
*330 TAP_TAPCELL_ROW_11_58
*331 TAP_TAPCELL_ROW_11_59
*332 TAP_TAPCELL_ROW_12_60
*333 TAP_TAPCELL_ROW_12_61
*334 TAP_TAPCELL_ROW_13_62
*335 TAP_TAPCELL_ROW_13_63
*336 TAP_TAPCELL_ROW_14_64
*337 TAP_TAPCELL_ROW_14_65
*338 TAP_TAPCELL_ROW_15_66
*339 TAP_TAPCELL_ROW_15_67
*340 TAP_TAPCELL_ROW_16_68
*341 TAP_TAPCELL_ROW_16_69
*342 TAP_TAPCELL_ROW_16_70
*343 TAP_TAPCELL_ROW_16_71
*344 TAP_TAPCELL_ROW_1_38
*345 TAP_TAPCELL_ROW_1_39
*346 TAP_TAPCELL_ROW_2_40
*347 TAP_TAPCELL_ROW_2_41
*348 TAP_TAPCELL_ROW_3_42
*349 TAP_TAPCELL_ROW_3_43
*350 TAP_TAPCELL_ROW_4_44
*351 TAP_TAPCELL_ROW_4_45
*352 TAP_TAPCELL_ROW_5_46
*353 TAP_TAPCELL_ROW_5_47
*354 TAP_TAPCELL_ROW_6_48
*355 TAP_TAPCELL_ROW_6_49
*356 TAP_TAPCELL_ROW_7_50
*357 TAP_TAPCELL_ROW_7_51
*358 TAP_TAPCELL_ROW_8_52
*359 TAP_TAPCELL_ROW_8_53
*360 TAP_TAPCELL_ROW_9_54
*361 TAP_TAPCELL_ROW_9_55
*362 _33_
*363 _34_
*364 _35_
*365 _36_
*366 _37_
*367 _38_
*368 _39_
*369 _40_
*370 _41_
*371 _42_
*372 _43_
*373 _44_
*374 _45_
*375 _46_
*376 _47_
*377 _48_
*378 _49_
*379 _50_
*380 _51_
*381 _52_
*382 _53_
*383 _54_
*384 _55_
*385 _56_
*386 _57_
*387 _58_
*388 _59_
*389 _60_
*390 _61_
*391 _62_
*392 _62__10
*393 _63_
*394 _63__9
*395 _64_
*396 _64__12
*397 _65_
*398 _65__11
*399 input1
*400 input2
*401 input3
*402 input4
*403 output5
*404 output6
*405 output7
*406 output8

*PORTS
enable I
reloj I
reset I
resultado[0] O
resultado[1] O
resultado[2] O
resultado[3] O
suma_resta I

*D_NET *3 0.00189001
*CONN
*P enable I
*I *399:A I *D gf180mcu_as_sc_mcu7t3v3__buff_2
*CAP
1 enable 0.000945003
2 *399:A 0.000945003
*RES
1 enable *399:A 19.665 
*END

*D_NET *4 0.000991079
*CONN
*P reloj I
*I *400:A I *D gf180mcu_as_sc_mcu7t3v3__buff_2
*CAP
1 reloj 0.00049554
2 *400:A 0.00049554
3 *400:A *19:10 0
*RES
1 reloj *400:A 12.555 
*END

*D_NET *5 0.000971648
*CONN
*P reset I
*I *401:A I *D gf180mcu_as_sc_mcu7t3v3__buff_2
*CAP
1 reset 0.000485824
2 *401:A 0.000485824
*RES
1 reset *401:A 12.465 
*END

*D_NET *6 0.00171027
*CONN
*P resultado[0] O
*I *403:Y O *D gf180mcu_as_sc_mcu7t3v3__buff_2
*CAP
1 resultado[0] 0.000855136
2 *403:Y 0.000855136
*RES
1 *403:Y resultado[0] 10.665 
*END

*D_NET *7 0.00176507
*CONN
*P resultado[1] O
*I *404:Y O *D gf180mcu_as_sc_mcu7t3v3__buff_2
*CAP
1 resultado[1] 0.000882533
2 *404:Y 0.000882533
*RES
1 *404:Y resultado[1] 10.845 
*END

*D_NET *8 0.00172879
*CONN
*P resultado[2] O
*I *405:Y O *D gf180mcu_as_sc_mcu7t3v3__buff_2
*CAP
1 resultado[2] 0.000864397
2 *405:Y 0.000864397
*RES
1 *405:Y resultado[2] 10.575 
*END

*D_NET *9 0.00183121
*CONN
*P resultado[3] O
*I *406:Y O *D gf180mcu_as_sc_mcu7t3v3__buff_2
*CAP
1 resultado[3] 0.000915603
2 *406:Y 0.000915603
*RES
1 *406:Y resultado[3] 10.845 
*END

*D_NET *10 0.00154311
*CONN
*P suma_resta I
*I *402:A I *D gf180mcu_as_sc_mcu7t3v3__buff_2
*CAP
1 suma_resta 0.000771556
2 *402:A 0.000771556
*RES
1 suma_resta *402:A 10.125 
*END

*D_NET *11 0.00135619
*CONN
*I *395:D I *D gf180mcu_as_sc_mcu7t3v3__dfsrtp_2
*I *376:Y O *D gf180mcu_as_sc_mcu7t3v3__aoi31_4
*CAP
1 *395:D 0.000606167
2 *376:Y 0.000606167
3 *395:D *376:D 0.000143853
*RES
1 *376:Y *395:D 13.05 
*END

*D_NET *12 0.0010197
*CONN
*I *397:D I *D gf180mcu_as_sc_mcu7t3v3__dfsrtp_2
*I *385:Y O *D gf180mcu_as_sc_mcu7t3v3__nand2_4
*CAP
1 *397:D 0.000506784
2 *385:Y 0.000506784
3 *397:D *397:CLK 6.1368e-06
4 *397:D *41:61 0
*RES
1 *385:Y *397:D 21.6 
*END

*D_NET *13 0.0026872
*CONN
*I *391:D I *D gf180mcu_as_sc_mcu7t3v3__dfsrtp_2
*I *386:Y O *D gf180mcu_as_sc_mcu7t3v3__xor2_2
*CAP
1 *391:D 0.00099425
2 *386:Y 0.00099425
3 *391:D *391:RN 0.000415188
4 *391:D *45:35 0.000224067
5 *391:D *47:19 5.9445e-05
*RES
1 *386:Y *391:D 24.66 
*END

*D_NET *14 0.0010013
*CONN
*I *393:D I *D gf180mcu_as_sc_mcu7t3v3__dfsrtp_2
*I *390:Y O *D gf180mcu_as_sc_mcu7t3v3__oai21_2
*CAP
1 *393:D 0.00034603
2 *390:Y 0.00034603
3 *393:D *19:10 0.000154621
4 *393:D *41:31 0.000154621
*RES
1 *390:Y *393:D 12.06 
*END

*D_NET *15 0.00404051
*CONN
*I *379:A I *D gf180mcu_as_sc_mcu7t3v3__nor2b_2
*I *382:A I *D gf180mcu_as_sc_mcu7t3v3__nand2_2
*I *365:A I *D gf180mcu_as_sc_mcu7t3v3__nand2_2
*I *362:Y O *D gf180mcu_as_sc_mcu7t3v3__nand2_2
*CAP
1 *379:A 0.000452309
2 *382:A 0.00020362
3 *365:A 0
4 *362:Y 0.000143289
5 *15:16 0.000629298
6 *15:8 0.00102128
7 *379:A *379:B 3.74108e-05
8 *379:A *380:B 0
9 *379:A *46:10 6.44781e-05
10 *379:A *46:12 4.78857e-06
11 *382:A *382:B 2.31089e-05
12 *382:A *383:C 2.89427e-06
13 *382:A *24:36 0
14 *382:A *30:10 0
15 *382:A *49:18 0.000180392
16 *15:8 *362:B 0.00035741
17 *15:16 *379:B 0
18 *15:16 *46:12 2.08284e-05
19 *15:16 *49:18 0.000899407
*RES
1 *362:Y *15:8 10.26 
2 *15:8 *15:16 8.01 
3 *15:16 *365:A 4.5 
4 *15:16 *382:A 6.12 
5 *15:8 *379:A 11.52 
*END

*D_NET *16 0.0030364
*CONN
*I *364:B I *D gf180mcu_as_sc_mcu7t3v3__nand2b_2
*I *369:B I *D gf180mcu_as_sc_mcu7t3v3__nand2_2
*I *363:Y O *D gf180mcu_as_sc_mcu7t3v3__inv_2
*CAP
1 *364:B 5.38824e-05
2 *369:B 0.000943561
3 *363:Y 0.000148542
4 *16:8 0.00114599
5 *364:B *368:A 0
6 *364:B *46:12 0
7 *369:B *368:B 0
8 *369:B *368:A 0
9 *369:B *371:C 0.000425372
10 *369:B *371:A 0.000268412
11 *369:B *387:B 5.22248e-06
12 *369:B *390:A 0
13 *16:8 *362:B 3.59465e-05
14 *16:8 *49:18 9.47101e-06
*RES
1 *363:Y *16:8 9.99 
2 *16:8 *369:B 16.2 
3 *16:8 *364:B 9.36 
*END

*D_NET *17 0.00149807
*CONN
*I *365:B I *D gf180mcu_as_sc_mcu7t3v3__nand2_2
*I *378:A I *D gf180mcu_as_sc_mcu7t3v3__nand2_2
*I *364:Y O *D gf180mcu_as_sc_mcu7t3v3__nand2b_2
*CAP
1 *365:B 0
2 *378:A 0.000280036
3 *364:Y 0.000271522
4 *17:6 0.000551557
5 *378:A *24:21 9.19901e-06
6 *378:A *24:36 2.90532e-05
7 *17:6 *49:18 0.000356706
*RES
1 *364:Y *17:6 6.84 
2 *17:6 *378:A 14.85 
3 *17:6 *365:B 4.5 
*END

*D_NET *18 0.00262657
*CONN
*I *374:A I *D gf180mcu_as_sc_mcu7t3v3__nand2b_2
*I *372:A I *D gf180mcu_as_sc_mcu7t3v3__nand2_2
*I *365:Y O *D gf180mcu_as_sc_mcu7t3v3__nand2_2
*CAP
1 *374:A 2.63838e-05
2 *372:A 0.000239718
3 *365:Y 0.000314849
4 *18:14 0.000580951
5 *372:A *374:B 0.000510286
6 *372:A *24:21 0.000225
7 *372:A *41:46 6.27248e-05
8 *374:A *376:C 0
9 *18:14 *373:A 1.39839e-05
10 *18:14 *374:B 0.0005311
11 *18:14 *26:8 3.2024e-05
12 *18:14 *41:46 4.15302e-05
13 *18:14 *49:18 4.80154e-05
*RES
1 *365:Y *18:14 11.8607 
2 *18:14 *372:A 11.7193 
3 *18:14 *374:A 9.15107 
*END

*D_NET *19 0.00552116
*CONN
*I *389:A I *D gf180mcu_as_sc_mcu7t3v3__ao21_2
*I *371:A I *D gf180mcu_as_sc_mcu7t3v3__aoi21b_4
*I *388:A I *D gf180mcu_as_sc_mcu7t3v3__oai21_2
*I *366:Y O *D gf180mcu_as_sc_mcu7t3v3__inv_6
*CAP
1 *389:A 0
2 *371:A 0.000863448
3 *388:A 0.000190365
4 *366:Y 0.000980093
5 *19:21 0.00111389
6 *19:10 0.0014209
7 *371:A *368:B 8.22406e-06
8 *371:A *387:B 6.87519e-05
9 *371:A *390:A 0
10 *371:A *22:6 1.55928e-05
11 *371:A *37:10 5.79501e-05
12 *371:A *41:12 0.000144171
13 *388:A *388:B 2.30248e-05
14 *388:A *389:C 4.90461e-05
15 *19:10 *366:A 3.98166e-06
16 *19:10 *386:B 0
17 *19:10 *390:C 0.000113751
18 *19:10 *41:31 0
19 *19:10 *44:10 4.49396e-05
20 *19:21 *388:B 0
21 *19:21 *390:A 0
22 *19:21 *37:10 0
23 *369:B *371:A 0.000268412
24 *393:D *19:10 0.000154621
25 *400:A *19:10 0
*RES
1 *366:Y *19:10 15.885 
2 *19:10 *388:A 10.44 
3 *19:10 *19:21 1.53 
4 *19:21 *371:A 15.6021 
5 *19:21 *389:A 9 
*END

*D_NET *20 0.00340097
*CONN
*I *368:B I *D gf180mcu_as_sc_mcu7t3v3__nand2_2
*I *390:A I *D gf180mcu_as_sc_mcu7t3v3__oai21_2
*I *367:Y O *D gf180mcu_as_sc_mcu7t3v3__inv_4
*CAP
1 *368:B 0.000547543
2 *390:A 0.000947799
3 *367:Y 2.27797e-05
4 *20:8 0.00151812
5 *368:B *369:A 0
6 *368:B *371:C 0.000140022
7 *368:B *371:B 7.27934e-05
8 *368:B *21:6 3.97987e-05
9 *368:B *22:6 9.14816e-06
10 *368:B *24:8 0
11 *390:A *41:27 6.86885e-05
12 *20:8 *369:A 1.0415e-05
13 *20:8 *48:10 1.56328e-05
14 *369:B *368:B 0
15 *369:B *390:A 0
16 *371:A *368:B 8.22406e-06
17 *371:A *390:A 0
18 *19:21 *390:A 0
*RES
1 *367:Y *20:8 9.135 
2 *20:8 *390:A 14.85 
3 *20:8 *368:B 12.78 
*END

*D_NET *21 0.00152708
*CONN
*I *371:B I *D gf180mcu_as_sc_mcu7t3v3__aoi21b_4
*I *387:B I *D gf180mcu_as_sc_mcu7t3v3__nand2_2
*I *368:Y O *D gf180mcu_as_sc_mcu7t3v3__nand2_2
*CAP
1 *371:B 0.000219595
2 *387:B 0.000327456
3 *368:Y 5.75218e-05
4 *21:6 0.000604573
5 *371:B *371:C 0
6 *387:B *371:C 5.54456e-05
7 *387:B *22:6 2.30981e-05
8 *387:B *37:10 3.01487e-05
9 *21:6 *371:C 2.26729e-05
10 *368:B *371:B 7.27934e-05
11 *368:B *21:6 3.97987e-05
12 *369:B *387:B 5.22248e-06
13 *371:A *387:B 6.87519e-05
*RES
1 *368:Y *21:6 5.04 
2 *21:6 *387:B 15.84 
3 *21:6 *371:B 6.12 
*END

*D_NET *22 0.00107536
*CONN
*I *370:A I *D gf180mcu_as_sc_mcu7t3v3__inv_2
*I *387:A I *D gf180mcu_as_sc_mcu7t3v3__nand2_2
*I *369:Y O *D gf180mcu_as_sc_mcu7t3v3__nand2_2
*CAP
1 *370:A 0.000187715
2 *387:A 0
3 *369:Y 0.00020929
4 *22:6 0.000397005
5 *370:A *371:C 9.98816e-05
6 *370:A *37:10 1.58709e-05
7 *22:6 *369:A 6.44696e-05
8 *22:6 *371:C 5.3289e-05
9 *368:B *22:6 9.14816e-06
10 *371:A *22:6 1.55928e-05
11 *387:B *22:6 2.30981e-05
*RES
1 *369:Y *22:6 6.12 
2 *22:6 *387:A 4.5 
3 *22:6 *370:A 6.12 
*END

*D_NET *23 0.00203695
*CONN
*I *371:C I *D gf180mcu_as_sc_mcu7t3v3__aoi21b_4
*I *370:Y O *D gf180mcu_as_sc_mcu7t3v3__inv_2
*CAP
1 *371:C 0.000575074
2 *370:Y 0.000575074
3 *371:C *368:A 9.01209e-05
4 *368:B *371:C 0.000140022
5 *369:B *371:C 0.000425372
6 *370:A *371:C 9.98816e-05
7 *371:B *371:C 0
8 *387:B *371:C 5.54456e-05
9 *21:6 *371:C 2.26729e-05
10 *22:6 *371:C 5.3289e-05
*RES
1 *370:Y *371:C 23.4 
*END

*D_NET *24 0.00743738
*CONN
*I *379:B I *D gf180mcu_as_sc_mcu7t3v3__nor2b_2
*I *378:B I *D gf180mcu_as_sc_mcu7t3v3__nand2_2
*I *373:A I *D gf180mcu_as_sc_mcu7t3v3__inv_2
*I *372:B I *D gf180mcu_as_sc_mcu7t3v3__nand2_2
*I *371:Y O *D gf180mcu_as_sc_mcu7t3v3__aoi21b_4
*CAP
1 *379:B 0.000730769
2 *378:B 6.80782e-05
3 *373:A 3.83698e-05
4 *372:B 0.000108541
5 *371:Y 0.000650321
6 *24:36 0.00118799
7 *24:21 0.000854095
8 *24:8 0.00118545
9 *372:B *376:B 0.000133141
10 *373:A *26:8 3.2024e-05
11 *373:A *49:18 0.000158798
12 *379:B *380:B 1.61174e-05
13 *379:B *46:10 0
14 *24:21 *374:B 0.00115585
15 *24:21 *382:B 0.000101615
16 *24:21 *41:46 0
17 *24:36 *382:B 0.000425242
18 *24:36 *383:C 0.000112523
19 *24:36 *30:10 0.00016382
20 *368:B *24:8 0
21 *372:A *24:21 0.000225
22 *378:A *24:21 9.19901e-06
23 *378:A *24:36 2.90532e-05
24 *379:A *379:B 3.74108e-05
25 *382:A *24:36 0
26 *15:16 *379:B 0
27 *18:14 *373:A 1.39839e-05
*RES
1 *371:Y *24:8 8.46 
2 *24:8 *372:B 5.4 
3 *24:8 *24:21 9.27 
4 *24:21 *373:A 9.45 
5 *24:21 *24:36 7.56 
6 *24:36 *378:B 4.95 
7 *24:36 *379:B 17.91 
*END

*D_NET *25 0.000626037
*CONN
*I *376:B I *D gf180mcu_as_sc_mcu7t3v3__aoi31_4
*I *372:Y O *D gf180mcu_as_sc_mcu7t3v3__nand2_2
*CAP
1 *376:B 0.000245243
2 *372:Y 0.000245243
3 *376:B *376:A 2.40933e-06
4 *376:B *376:C 0
5 *376:B *44:23 0
6 *372:B *376:B 0.000133141
*RES
1 *372:Y *376:B 10.53 
*END

*D_NET *26 0.00353378
*CONN
*I *382:B I *D gf180mcu_as_sc_mcu7t3v3__nand2_2
*I *374:B I *D gf180mcu_as_sc_mcu7t3v3__nand2b_2
*I *373:Y O *D gf180mcu_as_sc_mcu7t3v3__inv_2
*CAP
1 *382:B 0.000178224
2 *374:B 7.0641e-05
3 *373:Y 1.5577e-05
4 *26:8 0.000264442
5 *374:B *376:C 9.84908e-05
6 *382:B *383:C 9.51606e-05
7 *382:B *41:61 0
8 *372:A *374:B 0.000510286
9 *373:A *26:8 3.2024e-05
10 *382:A *382:B 2.31089e-05
11 *18:14 *374:B 0.0005311
12 *18:14 *26:8 3.2024e-05
13 *24:21 *374:B 0.00115585
14 *24:21 *382:B 0.000101615
15 *24:36 *382:B 0.000425242
*RES
1 *373:Y *26:8 9.18 
2 *26:8 *374:B 12.15 
3 *26:8 *382:B 10.71 
*END

*D_NET *27 0.000713409
*CONN
*I *376:C I *D gf180mcu_as_sc_mcu7t3v3__aoi31_4
*I *374:Y O *D gf180mcu_as_sc_mcu7t3v3__nand2b_2
*CAP
1 *376:C 0.000306614
2 *374:Y 0.000306614
3 *376:C *376:D 1.69023e-06
4 *374:B *376:C 9.84908e-05
5 *374:A *376:C 0
6 *376:B *376:C 0
*RES
1 *374:Y *376:C 10.89 
*END

*D_NET *28 0.000965658
*CONN
*I *376:D I *D gf180mcu_as_sc_mcu7t3v3__aoi31_4
*I *375:Y O *D gf180mcu_as_sc_mcu7t3v3__nor2_2
*CAP
1 *376:D 0.000410057
2 *375:Y 0.000410057
3 *376:C *376:D 1.69023e-06
4 *395:D *376:D 0.000143853
*RES
1 *375:Y *376:D 12.33 
*END

*D_NET *29 0.000701475
*CONN
*I *381:A I *D gf180mcu_as_sc_mcu7t3v3__nand3_2
*I *377:Y O *D gf180mcu_as_sc_mcu7t3v3__inv_2
*CAP
1 *381:A 0.000332512
2 *377:Y 0.000332512
3 *381:A *381:C 6.1368e-06
4 *381:A *385:A 3.03137e-05
*RES
1 *377:Y *381:A 20.25 
*END

*D_NET *30 0.00348723
*CONN
*I *383:B I *D gf180mcu_as_sc_mcu7t3v3__nand3_2
*I *381:B I *D gf180mcu_as_sc_mcu7t3v3__nand3_2
*I *378:Y O *D gf180mcu_as_sc_mcu7t3v3__nand2_2
*CAP
1 *383:B 0.000247231
2 *381:B 0.000439759
3 *378:Y 0.000564738
4 *30:10 0.00125173
5 *381:B *381:C 6.24048e-05
6 *383:B *380:A 0.00010372
7 *383:B *383:C 0.000264165
8 *383:B *384:B 6.02974e-05
9 *383:B *41:61 0.000120329
10 *30:10 *383:C 0.000209034
11 *382:A *30:10 0
12 *24:36 *30:10 0.00016382
*RES
1 *378:Y *30:10 12.96 
2 *30:10 *381:B 11.79 
3 *30:10 *383:B 20.34 
*END

*D_NET *31 0.00097146
*CONN
*I *380:B I *D gf180mcu_as_sc_mcu7t3v3__nor2b_2
*I *379:Y O *D gf180mcu_as_sc_mcu7t3v3__nor2b_2
*CAP
1 *380:B 0.000477671
2 *379:Y 0.000477671
3 *380:B *46:10 0
4 *379:B *380:B 1.61174e-05
5 *379:A *380:B 0
*RES
1 *379:Y *380:B 21.51 
*END

*D_NET *32 0.00109859
*CONN
*I *381:C I *D gf180mcu_as_sc_mcu7t3v3__nand3_2
*I *380:Y O *D gf180mcu_as_sc_mcu7t3v3__nor2b_2
*CAP
1 *381:C 0.000436884
2 *380:Y 0.000436884
3 *381:C *380:A 0.00015628
4 *381:A *381:C 6.1368e-06
5 *381:B *381:C 6.24048e-05
*RES
1 *380:Y *381:C 12.15 
*END

*D_NET *33 0.00133139
*CONN
*I *385:A I *D gf180mcu_as_sc_mcu7t3v3__nand2_4
*I *381:Y O *D gf180mcu_as_sc_mcu7t3v3__nand3_2
*CAP
1 *385:A 0.000446435
2 *381:Y 0.000446435
3 *385:A *377:A 3.38999e-05
4 *385:A *380:A 4.60575e-05
5 *385:A *384:B 0.000152165
6 *385:A *385:B 0.000176088
7 *381:A *385:A 3.03137e-05
*RES
1 *381:Y *385:A 12.96 
*END

*D_NET *34 0.00233657
*CONN
*I *383:C I *D gf180mcu_as_sc_mcu7t3v3__nand3_2
*I *382:Y O *D gf180mcu_as_sc_mcu7t3v3__nand2_2
*CAP
1 *383:C 0.000767357
2 *382:Y 0.000767357
3 *383:C *41:61 0.000118077
4 *382:B *383:C 9.51606e-05
5 *382:A *383:C 2.89427e-06
6 *383:B *383:C 0.000264165
7 *24:36 *383:C 0.000112523
8 *30:10 *383:C 0.000209034
*RES
1 *382:Y *383:C 24.03 
*END

*D_NET *35 0.000771675
*CONN
*I *384:B I *D gf180mcu_as_sc_mcu7t3v3__nand2_2
*I *383:Y O *D gf180mcu_as_sc_mcu7t3v3__nand3_2
*CAP
1 *384:B 0.000221206
2 *383:Y 0.000221206
3 *384:B *380:A 3.97987e-05
4 *384:B *385:B 0
5 *384:B *41:61 7.70028e-05
6 *383:B *384:B 6.02974e-05
7 *385:A *384:B 0.000152165
*RES
1 *383:Y *384:B 11.25 
*END

*D_NET *36 0.000463985
*CONN
*I *385:B I *D gf180mcu_as_sc_mcu7t3v3__nand2_4
*I *384:Y O *D gf180mcu_as_sc_mcu7t3v3__nand2_2
*CAP
1 *385:B 0.000143948
2 *384:Y 0.000143948
3 *384:B *385:B 0
4 *385:A *385:B 0.000176088
*RES
1 *384:Y *385:B 10.35 
*END

*D_NET *37 0.00340976
*CONN
*I *389:B I *D gf180mcu_as_sc_mcu7t3v3__ao21_2
*I *388:B I *D gf180mcu_as_sc_mcu7t3v3__oai21_2
*I *387:Y O *D gf180mcu_as_sc_mcu7t3v3__nand2_2
*CAP
1 *389:B 0.000163983
2 *388:B 0.000158725
3 *387:Y 0.000596766
4 *37:10 0.000919474
5 *389:B *389:C 0.000158836
6 *389:B *41:27 0.000121348
7 *37:10 *41:12 0.00116363
8 *370:A *37:10 1.58709e-05
9 *371:A *37:10 5.79501e-05
10 *387:B *37:10 3.01487e-05
11 *388:A *388:B 2.30248e-05
12 *19:21 *388:B 0
13 *19:21 *37:10 0
*RES
1 *387:Y *37:10 14.49 
2 *37:10 *388:B 10.1186 
3 *37:10 *389:B 10.44 
*END

*D_NET *38 0.000465033
*CONN
*I *389:C I *D gf180mcu_as_sc_mcu7t3v3__ao21_2
*I *388:Y O *D gf180mcu_as_sc_mcu7t3v3__oai21_2
*CAP
1 *389:C 0.000112347
2 *388:Y 0.000112347
3 *389:C *41:27 3.24574e-05
4 *388:A *389:C 4.90461e-05
5 *389:B *389:C 0.000158836
*RES
1 *388:Y *389:C 10.2568 
*END

*D_NET *39 0.00048882
*CONN
*I *390:C I *D gf180mcu_as_sc_mcu7t3v3__oai21_2
*I *389:Y O *D gf180mcu_as_sc_mcu7t3v3__ao21_2
*CAP
1 *390:C 0.000180367
2 *389:Y 0.000180367
3 *390:C *41:27 6.70526e-06
4 *390:C *41:31 7.63106e-06
5 *19:10 *390:C 0.000113751
*RES
1 *389:Y *390:C 10.62 
*END

*D_NET *40 0.000616094
*CONN
*I *393:SN I *D gf180mcu_as_sc_mcu7t3v3__dfsrtp_2
*I *394:ONE O *D gf180mcu_as_sc_mcu7t3v3__tieh_4
*CAP
1 *393:SN 0.000286063
2 *394:ONE 0.000286063
3 *393:SN *393:RN 4.39686e-05
*RES
1 *394:ONE *393:SN 6.255 
*END

*D_NET *41 0.0167645
*CONN
*I *390:B I *D gf180mcu_as_sc_mcu7t3v3__oai21_2
*I *386:B I *D gf180mcu_as_sc_mcu7t3v3__xor2_2
*I *380:A I *D gf180mcu_as_sc_mcu7t3v3__nor2b_2
*I *383:A I *D gf180mcu_as_sc_mcu7t3v3__nand3_2
*I *375:B I *D gf180mcu_as_sc_mcu7t3v3__nor2_2
*I *376:A I *D gf180mcu_as_sc_mcu7t3v3__aoi31_4
*I *388:C I *D gf180mcu_as_sc_mcu7t3v3__oai21_2
*I *399:Y O *D gf180mcu_as_sc_mcu7t3v3__buff_2
*CAP
1 *390:B 6.5947e-06
2 *386:B 0.000370739
3 *380:A 0.00054061
4 *383:A 0
5 *375:B 0.000156466
6 *376:A 2.46215e-05
7 *388:C 4.7536e-05
8 *399:Y 0.0016527
9 *41:61 0.00160958
10 *41:46 0.00218854
11 *41:35 0.00200829
12 *41:31 0.00194153
13 *41:27 0.000962707
14 *41:12 0.00210611
15 *375:B *49:14 4.31716e-06
16 *375:B *49:18 0.000248131
17 *376:A *44:23 2.36914e-05
18 *386:B *366:A 0.000197048
19 *386:B *47:19 2.59947e-05
20 *41:35 *44:23 0.000182078
21 *371:A *41:12 0.000144171
22 *372:A *41:46 6.27248e-05
23 *376:B *376:A 2.40933e-06
24 *381:C *380:A 0.00015628
25 *382:B *41:61 0
26 *383:B *380:A 0.00010372
27 *383:B *41:61 0.000120329
28 *383:C *41:61 0.000118077
29 *384:B *380:A 3.97987e-05
30 *384:B *41:61 7.70028e-05
31 *385:A *380:A 4.60575e-05
32 *389:B *41:27 0.000121348
33 *389:C *41:27 3.24574e-05
34 *390:A *41:27 6.86885e-05
35 *390:C *41:27 6.70526e-06
36 *390:C *41:31 7.63106e-06
37 *393:D *41:31 0.000154621
38 *397:D *41:61 0
39 *18:14 *41:46 4.15302e-05
40 *19:10 *386:B 0
41 *19:10 *41:31 0
42 *24:21 *41:46 0
43 *37:10 *41:12 0.00116363
*RES
1 *399:Y *41:12 25.38 
2 *41:12 *388:C 4.86 
3 *41:12 *41:27 3.15 
4 *41:27 *41:31 3.87 
5 *41:31 *41:35 11.61 
6 *41:35 *376:A 9.18 
7 *41:35 *41:46 6.21 
8 *41:46 *375:B 10.5541 
9 *41:46 *41:61 11.88 
10 *41:61 *383:A 4.5 
11 *41:61 *380:A 8.64 
12 *41:31 *386:B 7.41214 
13 *41:27 *390:B 4.68 
*END

*D_NET *42 0.000406989
*CONN
*I *397:SN I *D gf180mcu_as_sc_mcu7t3v3__dfsrtp_2
*I *398:ONE O *D gf180mcu_as_sc_mcu7t3v3__tieh_4
*CAP
1 *397:SN 0.000203494
2 *398:ONE 0.000203494
3 *397:SN *45:29 0
*RES
1 *398:ONE *397:SN 5.715 
*END

*D_NET *43 0.000789309
*CONN
*I *395:SN I *D gf180mcu_as_sc_mcu7t3v3__dfsrtp_2
*I *396:ONE O *D gf180mcu_as_sc_mcu7t3v3__tieh_4
*CAP
1 *395:SN 0.000362937
2 *396:ONE 0.000362937
3 *395:SN *395:RN 7.52216e-06
4 *395:SN *405:A 5.5914e-05
*RES
1 *396:ONE *395:SN 15.885 
*END

*D_NET *44 0.011476
*CONN
*I *391:CLK I *D gf180mcu_as_sc_mcu7t3v3__dfsrtp_2
*I *397:CLK I *D gf180mcu_as_sc_mcu7t3v3__dfsrtp_2
*I *395:CLK I *D gf180mcu_as_sc_mcu7t3v3__dfsrtp_2
*I *393:CLK I *D gf180mcu_as_sc_mcu7t3v3__dfsrtp_2
*I *400:Y O *D gf180mcu_as_sc_mcu7t3v3__buff_2
*CAP
1 *391:CLK 0
2 *397:CLK 0.000861214
3 *395:CLK 0
4 *393:CLK 0
5 *400:Y 0.00059109
6 *44:27 0.0011894
7 *44:23 0.00223794
8 *44:10 0.00250084
9 *397:CLK *405:A 0
10 *397:CLK *45:29 0.00068676
11 *397:CLK *45:35 0.00191293
12 *397:CLK *49:8 0.000130015
13 *397:CLK *49:14 0.000179442
14 *44:23 *404:A 9.51059e-05
15 *44:23 *48:10 1.34618e-05
16 *44:27 *45:35 0.000820982
17 *376:A *44:23 2.36914e-05
18 *376:B *44:23 0
19 *397:D *397:CLK 6.1368e-06
20 *19:10 *44:10 4.49396e-05
21 *41:35 *44:23 0.000182078
*RES
1 *400:Y *44:10 12.96 
2 *44:10 *393:CLK 9 
3 *44:10 *44:23 17.28 
4 *44:23 *44:27 7.47 
5 *44:27 *395:CLK 9 
6 *44:27 *397:CLK 17.46 
7 *44:23 *391:CLK 4.5 
*END

*D_NET *45 0.0148127
*CONN
*I *395:RN I *D gf180mcu_as_sc_mcu7t3v3__dfsrtp_2
*I *393:RN I *D gf180mcu_as_sc_mcu7t3v3__dfsrtp_2
*I *391:RN I *D gf180mcu_as_sc_mcu7t3v3__dfsrtp_2
*I *397:RN I *D gf180mcu_as_sc_mcu7t3v3__dfsrtp_2
*I *401:Y O *D gf180mcu_as_sc_mcu7t3v3__buff_2
*CAP
1 *395:RN 1.77503e-05
2 *393:RN 0.000894137
3 *391:RN 0.000407564
4 *397:RN 0
5 *401:Y 0.00115672
6 *45:35 0.00243582
7 *45:29 0.00261159
8 *45:14 0.00261645
9 *391:RN *47:8 2.65444e-06
10 *393:RN *391:SN 9.08071e-05
11 *393:RN *404:A 1.84991e-05
12 *393:RN *48:8 1.34588e-05
13 *393:RN *48:10 0
14 *395:RN *405:A 6.18753e-05
15 *45:14 *377:A 0
16 *45:14 *50:12 0.000352339
17 *45:29 *406:A 6.64299e-06
18 *45:29 *50:12 1.49923e-05
19 *391:D *391:RN 0.000415188
20 *391:D *45:35 0.000224067
21 *393:SN *393:RN 4.39686e-05
22 *395:SN *395:RN 7.52216e-06
23 *397:CLK *45:29 0.00068676
24 *397:CLK *45:35 0.00191293
25 *397:SN *45:29 0
26 *44:27 *45:35 0.000820982
*RES
1 *401:Y *45:14 20.8398 
2 *45:14 *397:RN 4.5 
3 *45:14 *45:29 13.8102 
4 *45:29 *45:35 10.53 
5 *45:35 *391:RN 12.15 
6 *45:35 *393:RN 23.6314 
7 *45:29 *395:RN 9.18 
*END

*D_NET *46 0.00625632
*CONN
*I *362:A I *D gf180mcu_as_sc_mcu7t3v3__nand2_2
*I *363:A I *D gf180mcu_as_sc_mcu7t3v3__inv_2
*I *368:A I *D gf180mcu_as_sc_mcu7t3v3__nand2_2
*I *402:Y O *D gf180mcu_as_sc_mcu7t3v3__buff_2
*CAP
1 *362:A 0
2 *363:A 0
3 *368:A 0.000788316
4 *402:Y 0.00207474
5 *46:12 0.000963316
6 *46:10 0.00224974
7 *364:B *368:A 0
8 *364:B *46:12 0
9 *369:B *368:A 0
10 *371:C *368:A 9.01209e-05
11 *379:B *46:10 0
12 *379:A *46:10 6.44781e-05
13 *379:A *46:12 4.78857e-06
14 *380:B *46:10 0
15 *15:16 *46:12 2.08284e-05
*RES
1 *402:Y *46:10 22.32 
2 *46:10 *46:12 1.17 
3 *46:12 *368:A 14.67 
4 *46:12 *363:A 9 
5 *46:10 *362:A 9 
*END

*D_NET *47 0.00245993
*CONN
*I *386:A I *D gf180mcu_as_sc_mcu7t3v3__xor2_2
*I *366:A I *D gf180mcu_as_sc_mcu7t3v3__inv_6
*I *403:A I *D gf180mcu_as_sc_mcu7t3v3__buff_2
*I *391:Q O *D gf180mcu_as_sc_mcu7t3v3__dfsrtp_2
*CAP
1 *386:A 0.000224687
2 *366:A 0.000156922
3 *403:A 0.000189352
4 *391:Q 0.000241761
5 *47:19 0.000654289
6 *47:8 0.000703794
7 *386:B *366:A 0.000197048
8 *386:B *47:19 2.59947e-05
9 *391:RN *47:8 2.65444e-06
10 *391:D *47:19 5.9445e-05
11 *19:10 *366:A 3.98166e-06
*RES
1 *391:Q *47:8 5.76 
2 *47:8 *403:A 5.58 
3 *47:8 *47:19 2.07 
4 *47:19 *366:A 5.94 
5 *47:19 *386:A 14.85 
*END

*D_NET *48 0.0040155
*CONN
*I *404:A I *D gf180mcu_as_sc_mcu7t3v3__buff_2
*I *367:A I *D gf180mcu_as_sc_mcu7t3v3__inv_4
*I *369:A I *D gf180mcu_as_sc_mcu7t3v3__nand2_2
*I *393:Q O *D gf180mcu_as_sc_mcu7t3v3__dfsrtp_2
*CAP
1 *404:A 0.00104865
2 *367:A 0
3 *369:A 0.000233252
4 *393:Q 0.000118694
5 *48:10 0.00072489
6 *48:8 0.00165898
7 *368:B *369:A 0
8 *393:RN *404:A 1.84991e-05
9 *393:RN *48:8 1.34588e-05
10 *393:RN *48:10 0
11 *20:8 *369:A 1.0415e-05
12 *20:8 *48:10 1.56328e-05
13 *22:6 *369:A 6.44696e-05
14 *44:23 *404:A 9.51059e-05
15 *44:23 *48:10 1.34618e-05
*RES
1 *393:Q *48:8 5.22 
2 *48:8 *48:10 3.15 
3 *48:10 *369:A 6.12 
4 *48:10 *367:A 4.5 
5 *48:8 *404:A 11.43 
*END

*D_NET *49 0.00635477
*CONN
*I *405:A I *D gf180mcu_as_sc_mcu7t3v3__buff_2
*I *375:A I *D gf180mcu_as_sc_mcu7t3v3__nor2_2
*I *364:A I *D gf180mcu_as_sc_mcu7t3v3__nand2b_2
*I *362:B I *D gf180mcu_as_sc_mcu7t3v3__nand2_2
*I *395:Q O *D gf180mcu_as_sc_mcu7t3v3__dfsrtp_2
*CAP
1 *405:A 0.000298443
2 *375:A 0
3 *364:A 7.28583e-05
4 *362:B 0.00010764
5 *395:Q 0.000146087
6 *49:18 0.000806928
7 *49:14 0.00118944
8 *49:8 0.00100754
9 *373:A *49:18 0.000158798
10 *375:B *49:14 4.31716e-06
11 *375:B *49:18 0.000248131
12 *382:A *49:18 0.000180392
13 *395:RN *405:A 6.18753e-05
14 *395:SN *405:A 5.5914e-05
15 *397:CLK *405:A 0
16 *397:CLK *49:8 0.000130015
17 *397:CLK *49:14 0.000179442
18 *15:8 *362:B 0.00035741
19 *15:16 *49:18 0.000899407
20 *16:8 *362:B 3.59465e-05
21 *16:8 *49:18 9.47101e-06
22 *17:6 *49:18 0.000356706
23 *18:14 *49:18 4.80154e-05
*RES
1 *395:Q *49:8 9.99 
2 *49:8 *49:14 8.1 
3 *49:14 *49:18 6.93 
4 *49:18 *362:B 5.76 
5 *49:18 *364:A 5.07536 
6 *49:14 *375:A 4.5 
7 *49:8 *405:A 10.89 
*END

*D_NET *50 0.00343621
*CONN
*I *406:A I *D gf180mcu_as_sc_mcu7t3v3__buff_2
*I *377:A I *D gf180mcu_as_sc_mcu7t3v3__inv_2
*I *384:A I *D gf180mcu_as_sc_mcu7t3v3__nand2_2
*I *397:Q O *D gf180mcu_as_sc_mcu7t3v3__dfsrtp_2
*CAP
1 *406:A 0.00043871
2 *377:A 0.000206648
3 *384:A 0.000180195
4 *397:Q 3.12797e-05
5 *50:12 0.00104418
6 *50:6 0.00112732
7 *385:A *377:A 3.38999e-05
8 *45:14 *377:A 0
9 *45:14 *50:12 0.000352339
10 *45:29 *406:A 6.64299e-06
11 *45:29 *50:12 1.49923e-05
*RES
1 *397:Q *50:6 4.77 
2 *50:6 *50:12 9 
3 *50:12 *384:A 9.81 
4 *50:12 *377:A 10.35 
5 *50:6 *406:A 7.29 
*END

*D_NET *51 0.00104187
*CONN
*I *391:SN I *D gf180mcu_as_sc_mcu7t3v3__dfsrtp_2
*I *392:ONE O *D gf180mcu_as_sc_mcu7t3v3__tieh_4
*CAP
1 *391:SN 0.00047553
2 *392:ONE 0.00047553
3 *393:RN *391:SN 9.08071e-05
*RES
1 *392:ONE *391:SN 6.975 
*END
